Sr18 La10 Fe20 O82
1.0
   7.9023977777800001    0.0000000000000000    0.0000000000000000
   0.0000000000000000    7.9023977777800001    0.0000000000000000
   0.0000000000000000    0.0000000000000000   43.3643938769000030
La Fe O Sr
10 20 82 18
Selective dynamics
direct
   0.9941238615826090    0.9973151949308052    0.3169256997037145 T T T La
   0.9869070813502424    0.4998875181025293    0.3167913698113421 T T T La
   0.9990169419287142    0.0010645212932012    0.2285264498725032 T T T La
   0.4851078958125653    0.4998250160665818    0.2256975041231759 T T T La
   0.0075114266808832    0.0007083754398020    0.1366980325783120 T T T La
   0.5037548933777155    0.0009359383144757    0.1362993250301384 T T T La
   0.9966541715618662    0.5032273087783010    0.1349962270803943 T T T La
   0.0062887400000000    0.4975760000000001    0.0449424000000000 F F F La
   0.5049640000000000    0.9993850000000002    0.0448529000000000 F F F La
   0.5031679999999999    0.5002950000000000    0.0447939000000000 F F F La
   0.7453814014854098    0.2510420215661509    0.3629231952368530 T T T Fe
   0.2442805573900424    0.7503869987182469    0.3635745481139321 T T T Fe
   0.7428212840842301    0.7492592319122334    0.3637137181566655 T T T Fe
   0.2473750087533185    0.2497686493597513    0.3627165758021138 T T T Fe
   0.2468233155563150    0.7492024737042345    0.2718430116700369 T T T Fe
   0.7457844987634563    0.7492860177218934    0.2716678731253351 T T T Fe
   0.7461886432366446    0.2502602259130466    0.2716011885839360 T T T Fe
   0.2470500546609960    0.2498473214806390    0.2717708015651148 T T T Fe
   0.7481599190455971    0.7505908548260524    0.1812541955820569 T T T Fe
   0.2495534002055695    0.2511388426794650    0.1810795039340436 T T T Fe
   0.7481632630002341    0.2503930258686157    0.1811395557213502 T T T Fe
   0.2497481687593148    0.7497335450575024    0.1810876856333120 T T T Fe
   0.7512200000000000    0.7497890000000003    0.0900045000000000 F F F Fe
   0.2525560000000000    0.2485840000000000    0.0899467000000000 F F F Fe
   0.2525570000000000    0.7519880000000000    0.0898348000000000 F F F Fe
   0.7515110000000000    0.2507570000000000    0.0898128000000000 F F F Fe
   0.7551410000000000    0.2486030000000000    0.9998840000000000 F F F Fe
   0.7559090000000001    0.7513010000000000    0.9998100000000000 F F F Fe
   0.2485380000000000    0.2456220000000000    0.9997749999999999 F F F Fe
   0.2515020000000000    0.7484870000000000    0.9996820000000000 F F F Fe
   0.7576682632387992    0.2419991082072548    0.4080632322430203 T T T O
   0.2505549209177066    0.2641439152658477    0.4079844491160115 T T T O
   0.2424316938356562    0.7391516327391127    0.4097970872819255 T T T O
   0.2951967086783542    0.3068304946241030    0.5258696868177631 T T T O
   0.7484582401757599    0.5008499195137593    0.3636691963359868 T T T O
   0.4968963699654982    0.2487374873929962    0.3617742482000602 T T T O
   0.2375074851418353    0.9997193147216653    0.3641404627310334 T T T O
   0.4937304022702486    0.7512933127640031    0.3611773415702799 T T T O
   0.9942454751111000    0.7477485176394040    0.3613138291591007 T T T O
   0.2396791939918340    0.5007401702747052    0.3581428992409954 T T T O
   0.9970844223242603    0.2518361721739839    0.3592886754092212 T T T O
   0.7513257326024969   -0.0003974751694683    0.3585152644373304 T T T O
   0.2356760708982268    0.7745369158944090    0.3164355780376496 T T T O
   0.7598432595604816    0.7304002857144106    0.3164592062767611 T T T O
   0.0375254719918969    0.0471093150693258    0.4577981146854815 T T T O
   0.7514175312387389    0.2721673811034191    0.3164539009017870 T T T O
   0.2482696206516304    0.2253393252430050    0.3163583851823702 T T T O
   0.7189462077435718    0.0002096813982587    0.2756178548360612 T T T O
   0.1557294563378520    0.8012592949175712    0.5272458332297362 T T T O
   0.2081129832445661    0.4994570458253728    0.2767319246901916 T T T O
  -0.0026175794148849    0.2072766833760986    0.2738490025729268 T T T O
  -0.0029012540048376    0.7917424941392925    0.2720099913433533 T T T O
   0.4971561827016683    0.7103046950831824    0.2695335060208479 T T T O
   0.7949284492196362    0.3056224799514505    0.5259748064095356 T T T O
   0.2705458375809024   -0.0003905754746584    0.2666407583271416 T T T O
   0.4975197666003923    0.2887731104170790    0.2678175794772832 T T T O
   0.7841769020927035    0.4997291054506024    0.2689919665668384 T T T O
   0.1589635952520982    0.1904567107064775    0.5211368426442975 T T T O
   0.2329823364740707    0.2764702540209167    0.2263308387668281 T T T O
   0.2432748241543115    0.7220005135898084    0.2263021280206498 T T T O
   0.7720211373781996    0.2254606580153131    0.2262000022790261 T T T O
   0.7622769419995096    0.7749943993933963    0.2262401419922086 T T T O
   0.7084658338936435    0.5003636231599766    0.1855074487971227 T T T O
   0.1983850014463750    0.0004376138967102    0.1848668666826412 T T T O
   0.4983914905499028    0.2105312739438144    0.1830827258621434 T T T O
   0.7397215880613032    0.7607001525569083    0.4097801563455123 T T T O
   0.4984758765023456    0.7923311076641124    0.1812870281868834 T T T O
   0.2865402083168253    0.5001509289289137    0.1773441563837655 T T T O
   0.9993228008401648    0.7118294517305260    0.1771606228777898 T T T O
   0.4336464227706749    0.5600509674818204    0.4803038369316811 T T T O
   0.7907518881638561    0.0004433425261453    0.1770387205630700 T T T O
   0.9991426347174934    0.2882294760444014    0.1752963515183902 T T T O
   0.7347165484004821    0.2584308967550888    0.1353392024151645 T T T O
   0.7461814649695019    0.7402695580236662    0.1354039168435454 T T T O
   0.2656780699036063    0.2189387658138381    0.1353854827129751 T T T O
   0.2551326222615012    0.7808049731636988    0.1354049150392330 T T T O
   0.0016510300000000    0.2052720000000000    0.0929924000000000 F F F O
   0.0017685700000000    0.7946140000000000    0.0917109000000000 F F F O
   0.2012500000000000    0.5014790000000002    0.0916148000000000 F F F O
   0.6998410000000000    0.0005042950000000    0.0913373000000000 F F F O
   0.8059610000000003    0.5002500000000000    0.0898055000000000 F F F O
   0.5018950000000002    0.7052690000000000    0.0890508000000000 F F F O
   0.3058880000000000    0.9991640000000003    0.0875469000000000 F F F O
   0.5019439999999999    0.2962430000000000    0.0871561000000000 F F F O
   0.7476850000000000    0.7474010000000000    0.0455491000000000 F F F O
   0.7586450000000002    0.2539360000000000    0.0450867000000000 F F F O
   0.2426100000000000    0.2623140000000000    0.0442249000000000 F F F O
   0.2559420000000000    0.7382330000000000    0.0436785000000000 F F F O
   0.4986800000000002    0.2067080000000000    0.0007810810000000 F F F O
   0.0072915400000000    0.6963300000000000    0.0002777920000000 F F F O
   0.3038860000000000    0.5116130000000000    0.0000336940000000 F F F O
   0.7021790000000000    0.5024940000000000    0.0000071380000000 F F F O
   0.7871650000000002    0.9982330000000000    0.9995859999999999 F F F O
   0.2124990000000000    0.9861950000000000    0.9993000000000000 F F F O
   0.4969130000000000    0.7976530000000002    0.9991769999999999 F F F O
   0.7775004481860167    0.7116108877672321    0.5466360125739920 T T T O
   0.0034930000000000    0.3021760000000000    0.9982270000000000 F F F O
   0.9187654399026666   -0.0390759156419429    0.4788065042758542 T T T O
   0.0395522959623815    0.4628672590990920    0.4596958417808942 T T T O
   0.4184753078830898    0.9600695109361861    0.4788154671307882 T T T O
   0.5430210162335976    0.4645455660949784    0.4586882496548333 T T T O
   0.6587343852982326    0.1894618862214552    0.5209155182859578 T T T O
   0.5329337079174948    1.0494837386619269    0.4575279479117518 T T T O
   0.6563126482901903    0.8003623168828962    0.5272310044580300 T T T O
   0.2784872556902772    0.7112452099361398    0.5461209318045246 T T T O
   0.9315049192120241    0.5626032505241051    0.4807468644413020 T T T O
   0.3288133079840088    0.4460819068988860    0.5898915315108977 T T T O
   0.4993559479893517    0.2158472871154711    0.5846628743181319 T T T O
   0.9972506349508879    0.2161703060860774    0.5846815781788316 T T T O
   0.3599644185087947    0.2852506137489690    0.5987682863165444 T T T O
   0.8601865189998422    0.2879299416956405    0.5991223765312415 T T T O
   0.8303799546378923    0.4488345996478889    0.5901548122487189 T T T O
   0.0492115609309959    0.4922008900466482    0.5414134812755860 T T T Sr
   0.6803087753181720    0.7575259051557087    0.4677207839330205 T T T Sr
   0.4897976989281505   -0.0026817992061971    0.3172260358052869 T T T Sr
   0.4937577542362285    0.4980460625624841    0.3162870421575235 T T T Sr
   0.5062046836429895   -0.0007014193798051    0.2276459484239585 T T T Sr
   0.9937561416893189    0.5011355793566178    0.2250277348282934 T T T Sr
   0.5051112491626467    0.4992506955899732    0.1351492417005210 T T T Sr
   0.0025580300000000    0.9991380000000000    0.0452371000000000 F F F Sr
  -0.0115244589583990    0.0010473202214864    0.4014310754075610 T T T Sr
  -0.0013338221861692    0.4971076292781077    0.4015797266600059 T T T Sr
   0.7861370297173749    1.2569849295651365    0.4668819705959989 T T T Sr
   0.2863993955576453    1.2591604875435636    0.4669266764840267 T T T Sr
   0.4907861353527043    0.5012066281220582    0.4010414402450476 T T T Sr
   0.1811474444222500    0.7549473787915040    0.4679007927200773 T T T Sr
   0.4954095444561289    1.0024325299530601    0.4009153620292747 T T T Sr
   0.5496248853468321    0.4919286682060407    0.5411119140221914 T T T Sr
   0.4077490367874836    0.0041184206746069    0.5371661613499229 T T T Sr
  -0.0924554567528741    0.0039330225136980    0.5372771501945366 T T T Sr
