Sr6 La22 Fe20 O69
1.0
   7.9023977777800001    0.0000000000000000    0.0000000000000000
   0.0000000000000000    7.9023977777800001    0.0000000000000000
   0.0000000000000000    0.0000000000000000   43.3643938769000030
La Fe O Sr
22 20 69 6
Selective dynamics
direct
   1.0216398682006373    0.6110620771487999    0.5401597825016878 T T T La
   0.7768982909903515    0.0770785721860376    0.5511705766647588 T T T La
   0.7672812100030955    0.8024438263270210    0.4734014912500503 T T T La
   0.0267519976417244    0.2411348137091362    0.4824566502765325 T T T La
   0.5207751652862301    0.6206348001297015    0.5462090491435641 T T T La
   0.5289865365092522    0.2470747653951882    0.4850444284018031 T T T La
   0.2717014868812716    0.7931765743959523    0.4713002151741987 T T T La
   0.2718232124555043    1.0807886233917501    0.5512735528015399 T T T La
   0.0032155126248559    0.9853300549658437    0.3158173225411492 T T T La
   0.9977003028007638    0.5081682180963952    0.3182848167915521 T T T La
   0.9970723409142690   -0.0438635876925841    0.2273539835762237 T T T La
   0.4981614140740928    0.4984701977287214    0.2193408664864087 T T T La
  -0.0023681385462040    0.0042901185637299    0.1348300319395886 T T T La
   0.4989810504612479   -0.0000991492990434    0.1340297653102948 T T T La
   0.9988863502168768    0.5110937997438354    0.1348868072853552 T T T La
   0.0062887400000000    0.4975760000000001    0.0449424000000000 F F F La
   0.5049640000000000    0.9993850000000004    0.0448529000000000 F F F La
   0.5031679999999999    0.5002950000000000    0.0447939000000000 F F F La
   1.0075003332482402    0.5452395528558844    0.4172727861001593 T T T La
   0.5347422743557202    0.0177390259089653    0.4069010702084623 T T T La
   0.5329832619665064    0.5297328170303773    0.4139383830398901 T T T La
   1.0038896567794329    1.0440993862016348    0.4057503789338424 T T T La
   0.7570183921794256    0.2747078598525938    0.3717249076669417 T T T Fe
   0.2603216750106353    0.7708423519673240    0.3704722159704009 T T T Fe
   0.7647308301727932    0.7613677100857188    0.3685339246549705 T T T Fe
   0.2459907120991060    0.2739936509112029    0.3751114890593898 T T T Fe
   0.2561828659499685    0.7357577186257785    0.2752242130093748 T T T Fe
   0.7473413345867457    0.7364120779110263    0.2748935129849776 T T T Fe
   0.7432601782228386    0.2465775436703378    0.2731647357663355 T T T Fe
   0.2579451329918341    0.2492385974057157    0.2733486269757140 T T T Fe
   0.7490882706694656    0.7479095890504160    0.1815608698352493 T T T Fe
   0.2494428577129766    0.2456601339854072    0.1815200967142638 T T T Fe
   0.7511065190552175    0.2460013920379237    0.1816309044125322 T T T Fe
   0.2518939683260747    0.7487080506863524    0.1814050066374990 T T T Fe
   0.7512200000000000    0.7497890000000005    0.0900045000000000 F F F Fe
   0.2525560000000000    0.2485840000000000    0.0899467000000000 F F F Fe
   0.2525570000000000    0.7519880000000000    0.0898348000000000 F F F Fe
   0.7515110000000000    0.2507570000000000    0.0898128000000000 F F F Fe
   0.7551410000000000    0.2486030000000000    0.9998840000000000 F F F Fe
   0.7559090000000001    0.7513010000000000    0.9998089999999997 F F F Fe
   0.2485380000000000    0.2456220000000000    0.9997749999999999 F F F Fe
   0.2515020000000000    0.7484870000000000    0.9996820000000000 F F F Fe
   0.2739803057712294    0.6879824768164956    0.4186182490731882 T T T O
   1.0229161867105991    0.9477430298082395    0.4567654889082842 T T T O
   0.8020501315263018    0.5147468475290961    0.3725069381327447 T T T O
   1.2819673590245511    0.0217427324771335    0.3807466005827314 T T T O
   0.5111608142973124    0.7397160869133379    0.3693470552931664 T T T O
   0.1573965587017570    0.2940083732729076    0.4225991157801059 T T T O
   0.2300318959354151    0.7705439586531931    0.3248769612592390 T T T O
   0.4853157527284319    0.3285094366135345    0.3721162386973107 T T T O
   0.7818918813191646    0.7621510697923864    0.3236800347375278 T T T O
   0.7389398813875994    0.0247785682417169    0.3663220520322910 T T T O
   0.0214033421349427    0.2460380296592503    0.3560849149252470 T T T O
   0.7699716200121570   -0.0021803267771106    0.2769030067319176 T T T O
   0.2494176108163558    0.4853895675503779    0.2885736257249905 T T T O
   0.0004915617266826    0.2483750325499491    0.2869997948696915 T T T O
   0.0022686668122741    0.7333006661250492    0.2750184713065101 T T T O
   0.5020344512129183    0.7459791371048675    0.2799274958579999 T T T O
   0.2315220101341792   -0.0011638563023169    0.2748363645431928 T T T O
   0.5006748783198335    0.2326666098634152    0.2887400724938793 T T T O
   0.7531148741263196    0.4849824700206912    0.2869904653751005 T T T O
   0.2588355540776777    0.2889961347843268    0.2305934995363709 T T T O
   0.2623914759917613    0.7149168132218542    0.2301251484441720 T T T O
   0.7466716657591119    0.2772646033093482    0.2303311046474329 T T T O
   0.7432938860497690    0.7244817815411890    0.2299292087000511 T T T O
   0.7115122364145496    0.4982184034023364    0.1797213746249845 T T T O
   0.2071851280891119   -0.0007468333415527    0.1907373207385066 T T T O
   0.5002568559348477    0.2110785930322979    0.1851278879478033 T T T O
   0.5009106901709175    0.7882631073109061    0.1820450651104124 T T T O
   0.2902140590240335    0.4985570562850307    0.1776446478206108 T T T O
   1.0017445659285218    0.7140349134542904    0.1840850718925870 T T T O
   0.7984758654579954   -0.0014821411936119    0.1876433924419674 T T T O
   1.0015429824501594    0.2919872370804977    0.1775887415001188 T T T O
   0.7366757942372054    0.2281796527053195    0.1364789618830840 T T T O
   0.7640353055433291    0.7624574308301791    0.1366185754291485 T T T O
   0.2648710955187276    0.2109828544701735    0.1363937553048672 T T T O
   0.2412264359932264    0.7827577746546375    0.1365871183116755 T T T O
   0.0016510300000000    0.2052720000000000    0.0929924000000000 F F F O
   0.0115492739389342    0.7871601739139045    0.3765389831133188 T T T O
   0.0017685700000000    0.7946140000000000    0.0917109000000000 F F F O
   0.2012500000000000    0.5014790000000005    0.0916148000000000 F F F O
   0.6998410000000000    0.0005042950000000    0.0913373000000000 F F F O
   0.8059610000000005    0.5002500000000000    0.0898055000000000 F F F O
   0.5018950000000003    0.7052690000000000    0.0890508000000000 F F F O
   0.3058880000000000    0.9991640000000005    0.0875469000000000 F F F O
   0.5019439999999999    0.2962430000000000    0.0871561000000000 F F F O
   0.7476850000000000    0.7474010000000000    0.0455491000000000 F F F O
   0.7586450000000005    0.2539360000000000    0.0450867000000000 F F F O
   0.2426100000000000    0.2623140000000000    0.0442249000000000 F F F O
   0.2559420000000000    0.7382330000000000    0.0436785000000000 F F F O
   0.4986800000000002    0.2067080000000000    0.0007810810000000 F F F O
   0.0072915400000000    0.6963300000000000    0.0002777920000000 F F F O
   0.3038860000000000    0.5116130000000000    0.0000336940000000 F F F O
   0.7021790000000000    0.5024940000000000    0.0000071380000000 F F F O
   0.7402735238050959    0.2517046831407299    0.4221198086764755 T T T O
   0.7871650000000004    0.9982330000000000    0.9995859999999999 F F F O
   0.2124990000000000    0.9861950000000000    0.9993000000000000 F F F O
   0.4969130000000000    0.7976530000000004    0.9991769999999999 F F F O
   0.0034930000000000    0.3021760000000000    0.9982270000000000 F F F O
   0.2723970719922621    0.1119842477729018    0.4989197083640113 T T T O
   0.0249312616276909   -0.0822797690596449    0.5576843284823912 T T T O
   0.0073004123796684    0.5651680315621688    0.4734409766968257 T T T O
   0.7773142306644157    0.1005697235306184    0.4986751713968322 T T T O
   0.5198406197578339   -0.0780732483071976    0.5598867457102111 T T T O
   1.0213109258304713    0.3080203163215920    0.5371308093840985 T T T O
  -0.2366099713025271   -0.2965074402542700    0.5247533102160392 T T T O
   0.5281899642862707    0.3102116334333110    0.5378550991054767 T T T O
   0.2793561965438673    0.6947131993674699    0.5227494520075769 T T T O
   0.7430967892337854    0.7617379577426105    0.4181496379197417 T T T O
   0.5275570236588120    0.5458103041646060    0.4693945231293396 T T T O
   0.5132061233424994   -0.0439785533714987    0.4591444909360121 T T T O
   0.5067578482297110    0.9698942540362041    0.3190271782720444 T T T Sr
   0.5049189562812738    0.5137560367579965    0.3213111193583711 T T T Sr
   0.4927189290697113   -0.0119288782359037    0.2261835929846115 T T T Sr
   0.9993624878376713    0.4907126314058892    0.2247492865869449 T T T Sr
   0.5036726994083692    0.4925913308001328    0.1333995490530881 T T T Sr
   0.0025580300000000    0.9991380000000000    0.0452371000000000 F F F Sr
