Sr13 La12 Fe18 O62
1.0
   7.9023977777800001    0.0004541627441710   -0.0053358984577747
   0.0004528280766766    7.9023977777800001    0.0012113725162610
  -0.0207718571413715    0.0047536778022240   43.3643938769000030
La Fe O Sr
12 18 62 13
Selective dynamics
direct
   0.5049640000000001    0.9993850000000000    0.0448529000000000 F F F La
   0.4961827584011591   -0.0103732104626219    0.4272440948220589 T T T La
   0.7471439934100395    0.7477531150661793    0.3652847965511524 T T T La
   0.4982224643318943   -0.0014529070755664    0.1357116590533672 T T T La
   0.2685540980576681    0.7423235990743733    0.4855313607123652 T T T La
   0.4978028771851644    0.5005116712138072    0.4275424472338044 T T T La
   0.5031680000000001    0.5002950000000000    0.0447939000000000 F F F La
   0.7478531608684400    0.2528152092139257    0.2830969848021664 T T T La
   1.2448794545765662    0.2427824187684235    0.2831654994324375 T T T La
   1.0031632676046505    0.9977125425334447    0.1360942582498815 T T T La
   0.0062887400000000    0.4975760000000000    0.0449424000000000 F F F La
   0.9911530998801832    0.5001556221531203    0.1355933977721094 T T T La
   0.2287520965271171    0.2417387692838723    0.4642015483045335 T T T Fe
   0.7512067429000288    0.2430903406485911    0.4646965009295999 T T T Fe
   0.4941801274414967   -0.0036636504776311    0.3253597313043872 T T T Fe
  -0.0030968233347127    0.4959900013804966    0.3266607267553587 T T T Fe
   0.4939854370500305    0.4953291291517238    0.3256323485329430 T T T Fe
  -0.0026967889269663   -0.0046251074374096    0.3264021938335513 T T T Fe
   0.7484618947460953    0.7481208229571619    0.1820950024893179 T T T Fe
   0.2498125043687746    0.2490514115963283    0.1818712796155701 T T T Fe
   0.7479781838153272    0.2487176659545893    0.1818948807468348 T T T Fe
   0.2496546890170629    0.7481882103181983    0.1820782094342759 T T T Fe
   0.7512199999999999    0.7497890000000000    0.0900045000000000 F F F Fe
   0.2525560000000000    0.2485840000000000    0.0899467000000000 F F F Fe
   0.2525570000000000    0.7519879999999999    0.0898348000000000 F F F Fe
   0.7515110000000002    0.2507570000000001    0.0898128000000000 F F F Fe
   0.7551410000000000    0.2486030000000000    0.9998840000000001 F F F Fe
   0.7559090000000001    0.7513010000000000    0.9998100000000000 F F F Fe
   0.2485380000000000    0.2456220000000000    0.9997750000000001 F F F Fe
   0.2515020000000000    0.7484869999999999    0.9996820000000001 F F F Fe
   0.3065104059931749    0.0302691223317257    0.4769190583080088 T T T O
   0.7188836300956352    0.7327789969753855    0.4172391274626627 T T T O
   0.3025552236768646    0.4565199230815964    0.4757281647624075 T T T O
   1.0160169490897728    0.7393473565918560    0.4723265547951225 T T T O
   0.6916710071660336    0.0230099899888859    0.4679500551711199 T T T O
   0.6863008364754624    0.4578883052593362    0.4710080254680560 T T T O
  -0.0037897455374089    0.2454324171367052    0.3277713147317301 T T T O
  -0.0068157257161661    0.7455315315403368    0.3234654782539196 T T T O
   0.2450774343755869    0.4936914491564944    0.3224989014820491 T T T O
   0.2350636113311920    0.0000157053590755    0.1827881377064760 T T T O
   0.4989215063701946    0.7456256473873114    0.3226009780170884 T T T O
   0.4943887790499195    0.2456323695773536    0.3276852988736176 T T T O
   0.2455759652196862   -0.0034499286885296    0.3289093287934597 T T T O
   0.7456841232953128    0.4945176070947233    0.3277051501310677 T T T O
   0.7463494921552015   -0.0017719641254311    0.3218373646347601 T T T O
   0.7023754761900725    0.2550907334441434    0.4215808633045465 T T T O
   0.9889602720797561    0.2394219021543839    0.4602981520943169 T T T O
   0.3130503926447941    0.2400833387524092    0.4222142503945234 T T T O
   0.3198312134934039    0.7478230294530541    0.4305259841944408 T T T O
   0.2421653946365883    0.2639926724929070    0.2291660710497338 T T T O
   0.2481564918880938    0.7343455089994219    0.2279957810012258 T T T O
   0.7562848643322700    0.2360950343326101    0.2291623106830273 T T T O
   0.7515951459091700    0.7581330851388091    0.2278015638140696 T T T O
   0.7446171224399077    0.4975597419155018    0.1812614742277904 T T T O
   0.7021790000000000    0.5024939999999999    0.0000071380000000 F F F O
   0.4992896326033933    0.2348219065419593    0.1818739458914052 T T T O
   0.4994404472927493    0.7629207543851116    0.1794662191572562 T T T O
   0.2529539703509179    0.4978299264436273    0.1764167824297582 T T T O
   0.7616591664496279   -0.0003350413998462    0.1774199041548205 T T T O
   0.9995692972668552    0.2590923655337429    0.1772833129721114 T T T O
   0.7419498556164886    0.2550561104903131    0.1346937360853914 T T T O
   0.7534340337024356    0.7444902236374482    0.1346133525876763 T T T O
   0.2641389390624770    0.2211315822089439    0.1347927489685836 T T T O
   0.2536014621492784    0.7791583220931858    0.1347050975197643 T T T O
   0.0016510300000000    0.2052720000000000    0.0929924000000000 F F F O
   0.0017685700000000    0.7946139999999999    0.0917109000000000 F F F O
   0.2012500000000000    0.5014790000000000    0.0916148000000000 F F F O
   0.6998410000000002    0.0005042950000000    0.0913373000000000 F F F O
   0.8059609999999999    0.5002500000000001    0.0898055000000000 F F F O
   0.5018950000000000    0.7052690000000000    0.0890508000000000 F F F O
   0.3058880000000000    0.9991640000000001    0.0875469000000000 F F F O
   0.5019439999999998    0.2962429999999999    0.0871561000000000 F F F O
   0.7476850000000000    0.7474010000000000    0.0455491000000000 F F F O
   0.7586450000000001    0.2539360000000000    0.0450867000000000 F F F O
   0.2426100000000000    0.2623140000000000    0.0442249000000000 F F F O
   0.2559420000000000    0.7382330000000000    0.0436785000000000 F F F O
   0.4986800000000001    0.2067080000000000    0.0007810810000000 F F F O
   0.0072915400000000    0.6963299999999999    0.0002777920000000 F F F O
   0.3038860000000000    0.5116130000000000    0.0000336940000000 F F F O
   0.9998838586233545    0.7382311185635103    0.1778106029428637 T T T O
   0.7871650000000001    0.9982329999999999    0.9995860000000000 F F F O
   0.2124990000000000    0.9861950000000000    0.9993000000000000 F F F O
   0.4969130000000000    0.7976529999999999    0.9991770000000000 F F F O
   0.0034930000000000    0.3021760000000000    0.9982270000000000 F F F O
  -0.0256568383772402   -0.0252481057601691    0.3750021897288109 T T T O
   1.0045288494407885    0.5112680637069275    0.3750711733745419 T T T O
   0.5179695074373420    0.9764323203032217    0.3728793521686699 T T T O
   0.4836906632870164    0.5114516578732289    0.3728524832258856 T T T O
   0.0188936371288206    0.0205762394126918    0.2780110869578447 T T T O
   0.9763372850582972    0.4706745305775689    0.2779117607073994 T T T O
   0.4733888511731210    1.0228409701240606    0.2776496056422820 T T T O
   0.5160358988793068    0.4680829852864238    0.2773268913039033 T T T O
   0.4990108306643944   -0.0046183273024673    0.2214236215618898 T T T Sr
   0.2433966588502981    0.7436025318046475    0.3675996168206673 T T T Sr
  -0.0513759286648865    0.5231022735777472    0.4346918219989346 T T T Sr
   0.4940259265552047    0.4990549125018353    0.2206467538589167 T T T Sr
   0.9946941179083375   -0.0032634022820131    0.2214547122650711 T T T Sr
   0.7476093021243272    0.7350477294997215    0.2835525588805068 T T T Sr
   0.4999943168969588    0.4976535747791746    0.1353559318756477 T T T Sr
   1.2406106268686210    0.2555136979062001    0.3671753068939735 T T T Sr
   0.7486666915381088    0.2386809391272772    0.3660662020835784 T T T Sr
   0.9499700657107735    0.9543259310839215    0.4349712325192283 T T T Sr
   1.0003458197989497    0.4985714010896774    0.2210360382780819 T T T Sr
   0.2442583939878486    0.7560228130798010    0.2843467756686103 T T T Sr
   0.0025580300000000    0.9991380000000000    0.0452371000000000 F F F Sr
