LSF
   1.00000000000000
    7.9023977777800001    0.0004541627441710   -0.0053358984577747
     0.0004528280766766    7.9023977777800001    0.0012113725162610
    -0.0207718571413715    0.0047536778022240   43.3643938769000030
   La   Fe   O    Sr
    12    18    62    13
Selective dynamics
Direct
  0.504964 0.999385 0.0448529 F F F
  0.495005 -0.0117999 0.427459 T T T
  0.746894 0.7476 0.365508 T T T
  0.498166 -0.00139525 0.135696 T T T
  0.267016 0.74245 0.485892 T T T
  0.497713 0.501727 0.427966 T T T
  0.503168 0.500295 0.0447939 F F F
  0.747736 0.252753 0.283105 T T T
  1.24477 0.242786 0.283163 T T T
  1.00296 0.997747 0.136085 T T T
  0.00628874 0.497576 0.0449424 F F F
  0.991239 0.500272 0.135591 T T T
  0.229907 0.242024 0.464334 T T T
  0.752971 0.242522 0.463467 T T T
  0.494244 -0.00379542 0.325323 T T T
  -0.00334273 0.495883 0.326559 T T T
  0.494036 0.495346 0.32564 T T T
  -0.00282867 -0.00466531 0.32631 T T T
  0.748353 0.748179 0.182096 T T T
  0.249706 0.249114 0.181862 T T T
  0.747874 0.248793 0.181891 T T T
  0.249546 0.748281 0.182078 T T T
  0.75122 0.749789 0.0900045 F F F
  0.252556 0.248584 0.0899467 F F F
  0.252557 0.751988 0.0898348 F F F
  0.751511 0.250757 0.0898128 F F F
  0.755141 0.248603 0.999884 F F F
  0.755909 0.751301 0.99981 F F F
  0.248538 0.245622 0.999775 F F F
  0.251502 0.748487 0.999682 F F F
  0.305349 0.0294731 0.476851 T T T
  0.720122 0.73113 0.417783 T T T
  0.300692 0.458041 0.475626 T T T
  1.00915 0.738901 0.473878 T T T
  0.691585 0.023454 0.466818 T T T
  0.68149 0.45291 0.471005 T T T
  -0.00376917 0.245407 0.327809 T T T
  -0.00691604 0.745434 0.323506 T T T
  0.244887 0.493562 0.322527 T T T
  0.234829 9.8657e-05 0.182762 T T T
  0.498894 0.745604 0.322629 T T T
  0.494342 0.245545 0.327653 T T T
  0.245473 -0.00344909 0.328931 T T T
  0.745731 0.494552 0.327708 T T T
  0.74637 -0.0019573 0.321842 T T T
  0.703313 0.257106 0.420818 T T T
  0.990647 0.240786 0.460014 T T T
  0.313506 0.23992 0.422409 T T T
  0.316508 0.747833 0.43065 T T T
  0.242043 0.263888 0.2292 T T T
  0.247974 0.734579 0.228022 T T T
  0.756169 0.236374 0.229194 T T T
  0.751521 0.757949 0.227824 T T T
  0.744402 0.497629 0.181222 T T T
  0.702179 0.502494 7.138e-06 F F F
  0.499177 0.234857 0.18189 T T T
  0.499328 0.763084 0.179481 T T T
  0.252925 0.497905 0.176456 T T T
  0.761645 -0.000269346 0.177486 T T T
  0.999465 0.259306 0.177292 T T T
  0.741848 0.254778 0.134699 T T T
  0.753383 0.744807 0.134617 T T T
  0.264113 0.221344 0.134793 T T T
  0.253505 0.779036 0.134704 T T T
  0.00165103 0.205272 0.0929924 F F F
  0.00176857 0.794614 0.0917109 F F F
  0.20125 0.501479 0.0916148 F F F
  0.699841 0.000504295 0.0913373 F F F
  0.805961 0.50025 0.0898055 F F F
  0.501895 0.705269 0.0890508 F F F
  0.305888 0.999164 0.0875469 F F F
  0.501944 0.296243 0.0871561 F F F
  0.747685 0.747401 0.0455491 F F F
  0.758645 0.253936 0.0450867 F F F
  0.24261 0.262314 0.0442249 F F F
  0.255942 0.738233 0.0436785 F F F
  0.49868 0.206708 0.000781081 F F F
  0.00729154 0.69633 0.000277792 F F F
  0.303886 0.511613 3.3694e-05 F F F
  0.999776 0.738199 0.177814 T T T
  0.787165 0.998233 0.999586 F F F
  0.212499 0.986195 0.9993 F F F
  0.496913 0.797653 0.999177 F F F
  0.003493 0.302176 0.998227 F F F
  -0.0264449 -0.0258507 0.375454 T T T
  1.00389 0.511626 0.375538 T T T
  0.518801 0.975909 0.373155 T T T
  0.483979 0.511812 0.37309 T T T
  0.0187194 0.0205638 0.278031 T T T
  0.976285 0.470615 0.277941 T T T
  0.473411 1.02267 0.277647 T T T
  0.515926 0.468197 0.277332 T T T
  0.49887 -0.00454454 0.221409 T T T
  0.243425 0.743587 0.367604 T T T
  -0.0450749 0.524322 0.433935 T T T
  0.493965 0.49913 0.220643 T T T
  0.994634 -0.00322915 0.221449 T T T
  0.747455 0.735054 0.283552 T T T
  0.499902 0.497663 0.135358 T T T
  1.2411 0.255559 0.367236 T T T
  0.74835 0.238361 0.366018 T T T
  0.952906 0.95274 0.434785 T T T
  1.00019 0.49864 0.221031 T T T
  0.244253 0.755927 0.284341 T T T
  0.00255803 0.999138 0.0452371 F F F
