Sr6 La18 Fe20 O63
1.0
   7.9023977777800001    0.0000000000000000    0.0000000000000000
   0.0000000000000000    7.9023977777800001    0.0000000000000000
   0.0000000000000000    0.0000000000000000   43.3643938769000030
La Fe O Sr
18 20 63 6
Selective dynamics
direct
   0.7767561735672540    0.8097952475758246    0.4735175193402614 T T T La
   0.0312300953081504    0.2507435295943226    0.4783775460545112 T T T La
   0.5331840125947837    0.2456961635422635    0.4838462474331208 T T T La
   0.2709067000136660    0.8041616620363540    0.4710265171696013 T T T La
   0.0027188219642613    0.9830162244241099    0.3150488042164691 T T T La
   0.9974561576382888    0.5050038689637977    0.3177370466354382 T T T La
   0.9950642945734957   -0.0427897782654706    0.2268154962942548 T T T La
   0.4964764932017386    0.4976716423876973    0.2189424187258733 T T T La
  -0.0027626565543738    0.0036422757044488    0.1347244431565432 T T T La
   0.4987783349226831   -0.0009333545272402    0.1338402107256552 T T T La
   0.9985652850559289    0.5097505432044926    0.1346978258946264 T T T La
   0.0062887400000000    0.4975760000000001    0.0449424000000000 F F F La
   0.5049640000000000    0.9993850000000004    0.0448529000000000 F F F La
   0.5031679999999999    0.5002950000000000    0.0447939000000000 F F F La
   1.0091675773663391    0.5561241962626182    0.4154807574661165 T T T La
   0.5393466800493765    0.0194357583702626    0.4064958668287786 T T T La
   0.5373917094052632    0.5342158445880498    0.4141250638762595 T T T La
   1.0034833669560650    1.0504992744842716    0.4041263191540547 T T T La
   0.7539058522182964    0.2778688000305570    0.3707813082922599 T T T Fe
   0.2631009848118318    0.7761354751215108    0.3700336922702274 T T T Fe
   0.7651030789341725    0.7632976329747133    0.3669108827010018 T T T Fe
   0.2483252552467738    0.2780242634902467    0.3753112347980875 T T T Fe
   0.2544985971422682    0.7346374743657531    0.2745796344036748 T T T Fe
   0.7464491575586216    0.7346581639357962    0.2740971760764779 T T T Fe
   0.7423031577447107    0.2451713415835723    0.2726668754877585 T T T Fe
   0.2560886888120927    0.2480849693787778    0.2728494573003980 T T T Fe
   0.7480188862349436    0.7472145520202703    0.1812217218019655 T T T Fe
   0.2485931260706519    0.2451229469319890    0.1812884017705931 T T T Fe
   0.7500482577382988    0.2454046317709883    0.1813827306486468 T T T Fe
   0.2507757592922115    0.7482216668492252    0.1811390692952864 T T T Fe
   0.7512200000000000    0.7497890000000005    0.0900045000000000 F F F Fe
   0.2525560000000000    0.2485840000000000    0.0899467000000000 F F F Fe
   0.2525570000000000    0.7519880000000000    0.0898348000000000 F F F Fe
   0.7515110000000000    0.2507570000000000    0.0898128000000000 F F F Fe
   0.7551410000000000    0.2486030000000000    0.9998840000000000 F F F Fe
   0.7559090000000001    0.7513010000000000    0.9998089999999997 F F F Fe
   0.2485380000000000    0.2456220000000000    0.9997749999999999 F F F Fe
   0.2515020000000000    0.7484870000000000    0.9996820000000000 F F F Fe
   0.2785293972186733    0.7026678625130786    0.4211142358702282 T T T O
   1.0282841516115697    0.9462423780174135    0.4552252074850333 T T T O
   0.8043672769922174    0.5190860437503934    0.3725207514113640 T T T O
   1.2842670793976583    0.0253746630536851    0.3814728705466690 T T T O
   0.5137316329057997    0.7409910011257065    0.3703142274823136 T T T O
   0.1480262541424819    0.2974666229003740    0.4231136238251570 T T T O
   0.2340007477317978    0.7699314400413395    0.3246535094941573 T T T O
   0.4866085832952938    0.3340468664148709    0.3717968763434157 T T T O
   0.7776614944904725    0.7593940600892219    0.3229156555175114 T T T O
   0.7389351724205776    0.0253134525558799    0.3651412760924686 T T T O
   0.0238792964044083    0.2464306777301630    0.3558895755370026 T T T O
   0.7662517284315750   -0.0038646454314811    0.2764877805456051 T T T O
   0.2465261683983618    0.4845450149536180    0.2879254879567393 T T T O
  -0.0010366973337187    0.2450248973243158    0.2868929905337409 T T T O
   0.0011678525694188    0.7351398613505427    0.2752265850305157 T T T O
   0.5007760759536712    0.7429036228964123    0.2786267749400587 T T T O
   0.2322301662973257   -0.0023711077178375    0.2742472403285639 T T T O
   0.4991157042548571    0.2334492956614261    0.2880260496541251 T T T O
   0.7532967247462706    0.4838376167350548    0.2862178786947980 T T T O
   0.2555337787825506    0.2883519955969895    0.2301714663158806 T T T O
   0.2579274355368930    0.7133306382883388    0.2296299423277278 T T T O
   0.7490291992230113    0.2743989944063953    0.2298792296493747 T T T O
   0.7457263270549361    0.7236941118576161    0.2293487230867991 T T T O
   0.7109029361368778    0.4974915692299791    0.1795931864862004 T T T O
   0.2063187747813233   -0.0013793168891087    0.1904978921320693 T T T O
   0.4992909408137807    0.2117421463615357    0.1853468737541566 T T T O
   0.4998292638785060    0.7865974569797497    0.1822532374005985 T T T O
   0.2887644018389559    0.4979984484760931    0.1773802183360478 T T T O
   1.0007256239895710    0.7137820354286002    0.1831711430540610 T T T O
   0.7970704325526667   -0.0022884857004203    0.1871438906846459 T T T O
   1.0006823472659683    0.2905046459204981    0.1771766117190856 T T T O
   0.7353696305542324    0.2282535371304814    0.1363441265927694 T T T O
   0.7611939962134099    0.7624670998614319    0.1363964373119413 T T T O
   0.2651591771460997    0.2108174608081405    0.1362908031661920 T T T O
   0.2426288204610755    0.7832131429481745    0.1364106040530555 T T T O
   0.0016510300000000    0.2052720000000000    0.0929924000000000 F F F O
   0.0120180739851860    0.7918658902478718    0.3757242124861097 T T T O
   0.0017685700000000    0.7946140000000000    0.0917109000000000 F F F O
   0.2012500000000000    0.5014790000000005    0.0916148000000000 F F F O
   0.6998410000000000    0.0005042950000000    0.0913373000000000 F F F O
   0.8059610000000005    0.5002500000000000    0.0898055000000000 F F F O
   0.5018950000000003    0.7052690000000000    0.0890508000000000 F F F O
   0.3058880000000000    0.9991640000000005    0.0875469000000000 F F F O
   0.5019439999999999    0.2962430000000000    0.0871561000000000 F F F O
   0.7476850000000000    0.7474010000000000    0.0455491000000000 F F F O
   0.7586450000000005    0.2539360000000000    0.0450867000000000 F F F O
   0.2426100000000000    0.2623140000000000    0.0442249000000000 F F F O
   0.2559420000000000    0.7382330000000000    0.0436785000000000 F F F O
   0.4986800000000002    0.2067080000000000    0.0007810810000000 F F F O
   0.0072915400000000    0.6963300000000000    0.0002777920000000 F F F O
   0.3038860000000000    0.5116130000000000    0.0000336940000000 F F F O
   0.7021790000000000    0.5024940000000000    0.0000071380000000 F F F O
   0.7346357036869291    0.2537601335044386    0.4210689148366702 T T T O
   0.7871650000000004    0.9982330000000000    0.9995859999999999 F F F O
   0.2124990000000000    0.9861950000000000    0.9993000000000000 F F F O
   0.4969130000000000    0.7976530000000004    0.9991769999999999 F F F O
   0.0034930000000000    0.3021760000000000    0.9982270000000000 F F F O
   0.2735799519118493    0.1399546787780232    0.4944073206481552 T T T O
  -0.0019833157813253    0.5748829224490875    0.4695022979401984 T T T O
   0.7842624699338409    0.1200566544455666    0.4938148213187000 T T T O
   0.7474770636242744    0.7656217913801324    0.4212159757610209 T T T O
   0.5277010261680480    0.5425873984518715    0.4689136089859294 T T T O
   0.5131317089658303   -0.0461306631750182    0.4589531531374824 T T T O
   0.5059814548611977    0.9693985150385965    0.3177087265847874 T T T Sr
   0.5028924928455784    0.5134202830121942    0.3204585664261255 T T T Sr
   0.4907418928634493   -0.0124801719978987    0.2259906055201871 T T T Sr
   0.9978848808354086    0.4905981408939205    0.2240314800567835 T T T Sr
   0.5029080397384174    0.4925753327245224    0.1332266101759330 T T T Sr
   0.0025580300000000    0.9991380000000000    0.0452371000000000 F F F Sr
