Sr6 La26 Fe20 O75
1.0
   7.9023977777800001    0.0000000000000000    0.0000000000000000
   0.0000000000000000    7.9023977777800001    0.0000000000000000
   0.0000000000000000    0.0000000000000000   43.3643938769000030
La Fe O Sr
18 20 63 6
Selective dynamics
direct
   0.7731674684064229    0.8108674807665052    0.4731092152725714 T T T La
   0.0292010901174743    0.2514504567282451    0.4800386226485572 T T T La
   0.5304773429580635    0.2475551624012619    0.4857415916315611 T T T La
   0.2725174927791274    0.8054830461472650    0.4707360055076544 T T T La
   0.0010775974560011    0.9802190362303169    0.3153782595246584 T T T La
   0.9959426835111735    0.5034723875329300    0.3177097674328933 T T T La
   0.9947096417181752   -0.0432689443717453    0.2268750795623678 T T T La
   0.4959399178359120    0.4975674096349544    0.2188364949764771 T T T La
  -0.0030441221798060    0.0035162520742480    0.1347842513896113 T T T La
   0.4987334907454529   -0.0010579640223916    0.1338248836247747 T T T La
   0.9982869534202705    0.5091753410026982    0.1346899907945024 T T T La
   0.0062887400000000    0.4975760000000001    0.0449424000000000 F F F La
   0.5049640000000000    0.9993850000000003    0.0448529000000000 F F F La
   0.5031679999999999    0.5002950000000000    0.0447939000000000 F F F La
   1.0084798547289908    0.5567334368026992    0.4160121234996051 T T T La
   0.5415343938491541    0.0176814107448086    0.4062503201520133 T T T La
   0.5346586744584705    0.5310664813941761    0.4139001430170922 T T T La
   1.0050161615379016    1.0545647888563536    0.4039616610356260 T T T La
   0.7549756530978010    0.2777140637090690    0.3701878621161794 T T T Fe
   0.2631524623048199    0.7762463242224432    0.3697669067168023 T T T Fe
   0.7651552298492994    0.7612381357237942    0.3672809684618169 T T T Fe
   0.2502268176189401    0.2800392578130579    0.3751447843614604 T T T Fe
   0.2532805464597239    0.7342501871792275    0.2744165543923850 T T T Fe
   0.7460180521972581    0.7339577388881614    0.2738738638512658 T T T Fe
   0.7418694489140260    0.2438203310466568    0.2725326868127153 T T T Fe
   0.2548378777044756    0.2471476873144483    0.2728873541994647 T T T Fe
   0.7475060212750037    0.7472810061436482    0.1811088541529076 T T T Fe
   0.2480542274618768    0.2449068517211276    0.1812467417751465 T T T Fe
   0.7496836674046820    0.2451006120771522    0.1813301293586966 T T T Fe
   0.2503222118393233    0.7481230976470969    0.1810291076080802 T T T Fe
   0.7512200000000000    0.7497890000000004    0.0900045000000000 F F F Fe
   0.2525560000000000    0.2485840000000000    0.0899467000000000 F F F Fe
   0.2525570000000000    0.7519880000000000    0.0898348000000000 F F F Fe
   0.7515110000000000    0.2507570000000000    0.0898128000000000 F F F Fe
   0.7551410000000000    0.2486030000000000    0.9998840000000000 F F F Fe
   0.7559090000000001    0.7513010000000000    0.9998089999999997 F F F Fe
   0.2485380000000000    0.2456220000000000    0.9997749999999999 F F F Fe
   0.2515020000000000    0.7484870000000000    0.9996820000000000 F F F Fe
   0.2780926115022910    0.6899274745402050    0.4178750902863325 T T T O
   1.0244468224904322    0.9544742009962023    0.4546541915731505 T T T O
   0.8136523347381802    0.5165528688139089    0.3714055647970782 T T T O
   1.2873226737844314    0.0272313280320356    0.3817045715035124 T T T O
   0.5134773069987463    0.7387759789676286    0.3688928611420159 T T T O
   0.1519664840202700    0.3041744172065503    0.4228356002100677 T T T O
   0.2336736999869675    0.7707773478736569    0.3241724528957294 T T T O
   0.4879556053278599    0.3385864611028123    0.3710287984644595 T T T O
   0.7765794753637225    0.7576871740612531    0.3226842663383471 T T T O
   0.7386266947497749    0.0263528952815817    0.3646160881923673 T T T O
   0.0270567579272905    0.2437631576143573    0.3557658309004102 T T T O
   0.7637918466262558   -0.0048565716753674    0.2763996695015202 T T T O
   0.2445092110350086    0.4839066009847236    0.2878715410907897 T T T O
  -0.0024480536196123    0.2421439536217924    0.2873511112157083 T T T O
   0.0003775582597411    0.7355099705048662    0.2748051960475262 T T T O
   0.4998232061232897    0.7414733933001003    0.2779607363644153 T T T O
   0.2323077373689762   -0.0029728787534471    0.2739706942175336 T T T O
   0.4982801450548657    0.2335498611649074    0.2878288377385382 T T T O
   0.7536479650156961    0.4829526234667146    0.2856402087585017 T T T O
   0.2539532958826091    0.2879003203033681    0.2301690627256362 T T T O
   0.2563227658082917    0.7128029934191044    0.2294014026476149 T T T O
   0.7499697570449541    0.2731273792479255    0.2297239883510384 T T T O
   0.7460422728370055    0.7233984908598946    0.2290641789138651 T T T O
   0.7106240285417167    0.4973197631042908    0.1794154535698358 T T T O
   0.2058293872406449   -0.0015193260322581    0.1904019762922202 T T T O
   0.4987770318222923    0.2121539193601204    0.1853633493126056 T T T O
   0.4993102282817716    0.7861162023125211    0.1822847155088367 T T T O
   0.2879571165075404    0.4977652498378805    0.1772841645541217 T T T O
   1.0002946320180708    0.7137394726342821    0.1827299447063811 T T T O
   0.7968550494194667   -0.0024383989524859    0.1870017262372578 T T T O
   1.0003090193174453    0.2902454068446829    0.1769322870190901 T T T O
   0.7350674372339816    0.2280491837854887    0.1362942574857947 T T T O
   0.7598626897319790    0.7632873345056380    0.1363076178008270 T T T O
   0.2650042875999463    0.2108567498273041    0.1362558024164492 T T T O
   0.2434298042237382    0.7834907373153843    0.1363302514164619 T T T O
   0.0016510300000000    0.2052720000000000    0.0929924000000000 F F F O
   0.0122111217785492    0.7966251886365524    0.3751087989647538 T T T O
   0.0017685700000000    0.7946140000000000    0.0917109000000000 F F F O
   0.2012500000000000    0.5014790000000003    0.0916148000000000 F F F O
   0.6998410000000000    0.0005042950000000    0.0913373000000000 F F F O
   0.8059610000000004    0.5002500000000000    0.0898055000000000 F F F O
   0.5018950000000003    0.7052690000000000    0.0890508000000000 F F F O
   0.3058880000000000    0.9991640000000004    0.0875469000000000 F F F O
   0.5019439999999999    0.2962430000000000    0.0871561000000000 F F F O
   0.7476850000000000    0.7474010000000000    0.0455491000000000 F F F O
   0.7586450000000003    0.2539360000000000    0.0450867000000000 F F F O
   0.2426100000000000    0.2623140000000000    0.0442249000000000 F F F O
   0.2559420000000000    0.7382330000000000    0.0436785000000000 F F F O
   0.4986800000000002    0.2067080000000000    0.0007810810000000 F F F O
   0.0072915400000000    0.6963300000000000    0.0002777920000000 F F F O
   0.3038860000000000    0.5116130000000000    0.0000336940000000 F F F O
   0.7021790000000000    0.5024940000000000    0.0000071380000000 F F F O
   0.7388177578936662    0.2576992574959090    0.4205583536448380 T T T O
   0.7871650000000003    0.9982330000000000    0.9995859999999999 F F F O
   0.2124990000000000    0.9861950000000000    0.9993000000000000 F F F O
   0.4969130000000000    0.7976530000000003    0.9991769999999999 F F F O
   0.0034930000000000    0.3021760000000000    0.9982270000000000 F F F O
   0.2694746110450764    0.1282188747797186    0.4964444366063439 T T T O
   0.0059595622313495    0.5679201349618652    0.4745744925225153 T T T O
   0.7848428680162857    0.1201530568521930    0.4961265398946743 T T T O
   0.7427260353026223    0.7559464656358347    0.4177825752694050 T T T O
   0.5272602348999887    0.5501111104294271    0.4729097113565395 T T T O
   0.5174552860696650   -0.0342275260470393    0.4587089449029329 T T T O
   0.5063227783516607    0.9682852693379017    0.3174393842601936 T T T Sr
   0.5028328943916777    0.5147433277767187    0.3199712100287752 T T T Sr
   0.4892915864707295   -0.0126005274405818    0.2260336228472885 T T T Sr
   0.9973593353333593    0.4906477055290853    0.2238172106757969 T T T Sr
   0.5022851052422485    0.4926183306149854    0.1331783325264232 T T T Sr
   0.0025580300000000    0.9991380000000000    0.0452371000000000 F F F Sr
