Sr20 La4 Fe16 O53
1.0
   7.9023977777800001    0.0004541627441710   -0.0053358984577747
   0.0004528280766766    7.9023977777800001    0.0012113725162610
  -0.0207718571413715    0.0047536778022240   43.3643938769000030
La Fe O Sr
4 16 53 20
Selective dynamics
direct
  -0.0037583842838076   -0.0049488943680924    0.1330029584946291 T T T La
   0.5031680000000001    0.5002950000000000    0.0447939000000000 F F F La
   0.0062887400000000    0.4975760000000000    0.0449424000000000 F F F La
   0.5049640000000001    0.9993850000000000    0.0448529000000000 F F F La
   0.4963471211042316   -0.0170784000095859    0.3274154191317502 T T T Fe
   0.9968681146163587    0.4902586036053891    0.3264184631233212 T T T Fe
   0.4973573919166172    0.4774545527436729    0.3270048595619471 T T T Fe
  -0.0038479667610253   -0.0284979983589157    0.3275095393438827 T T T Fe
   0.7520403983821096    0.7333917104244968    0.1831627333953714 T T T Fe
   0.2475524174711145    0.2483969939706314    0.1817857470227562 T T T Fe
   0.7497180254293060    1.2495315559449025    0.1823011880160199 T T T Fe
   0.2450352258059798    0.7342936861105955    0.1825623590317330 T T T Fe
   0.7512199999999999    0.7497890000000000    0.0900045000000000 F F F Fe
   0.2525560000000000    0.2485840000000000    0.0899467000000000 F F F Fe
   0.2525570000000000    0.7519879999999999    0.0898348000000000 F F F Fe
   0.7515110000000002    0.2507570000000001    0.0898128000000000 F F F Fe
   0.7551410000000000    0.2486030000000000    0.9998840000000001 F F F Fe
   0.7559090000000001    0.7513010000000000    0.9998100000000000 F F F Fe
   0.2485380000000000    0.2456220000000000    0.9997750000000001 F F F Fe
   0.2515020000000000    0.7484869999999999    0.9996820000000001 F F F Fe
   0.2385517241797938   -0.0068115601422897    0.3281113149026184 T T T O
  -0.0028514961230221    0.7299943371946818    0.3267042247603982 T T T O
   0.4966883973669680    0.7300381898738180    0.3269209511771310 T T T O
   0.4966887762024600    0.2300507608825240    0.3268809970509692 T T T O
   0.2438143472812317    0.4696711947289249    0.3266359249653703 T T T O
   0.7502270384617802    0.4701540283002362    0.3263417304135446 T T T O
   0.7533500803222467   -0.0077025175430439    0.3267145669440459 T T T O
   0.2432944299251598    1.2056565687865899    0.4260917582299200 T T T O
   0.7369924113746397    0.1991896341643128    0.4259751050385780 T T T O
   0.7590113177536517    0.6978429099665046    0.4240644365611863 T T T O
   0.2483251740202667    0.7011018274966915    0.4239609188735109 T T T O
   0.2464834928523958    0.2226147186728921    0.2266285444897495 T T T O
   0.2429984907338642    0.7528442514398712    0.2280764710712555 T T T O
   0.7502107025388498    0.2152252507245480    0.2268396307120006 T T T O
   0.7533961018634934    0.7605845397353741    0.2283466833576032 T T T O
   0.7617774551297427    0.4915051137244501    0.1838764592930374 T T T O
   0.9987614581505380    0.1882464091769931    0.1807985103328243 T T T O
   0.4989810940869389    0.2069789127025013    0.1824679966669943 T T T O
   0.4986693140784699    0.7675185007053209    0.1829398963811338 T T T O
   0.2365673275309491    0.4915173940962358    0.1812433709496633 T T T O
   0.9987823819481881    0.7923324779440484    0.1822450493000105 T T T O
   0.2432255809887878    0.7830020728202018    0.1384850500898041 T T T O
   0.7466218531621854    0.2357218434616967    0.1376200777337578 T T T O
   0.7563605684172398    0.7688451354046101    0.1387384726996195 T T T O
   0.2536856312482115    0.2203923887041328    0.1373012861013826 T T T O
   0.0016510300000000    0.2052720000000000    0.0929924000000000 F F F O
   0.0017685700000000    0.7946139999999999    0.0917109000000000 F F F O
   0.2012500000000000    0.5014790000000000    0.0916148000000000 F F F O
   0.6998410000000002    0.0005042950000000    0.0913373000000000 F F F O
   0.8059609999999999    0.5002500000000001    0.0898055000000000 F F F O
   0.5013919999999999    0.7006560000000001    0.0910833000000000 F F F O
   0.3058880000000000    0.9991640000000001    0.0875469000000000 F F F O
   0.5019439999999998    0.2962429999999999    0.0871561000000000 F F F O
   0.7476850000000000    0.7474010000000000    0.0455491000000000 F F F O
   0.7586450000000001    0.2539360000000000    0.0450867000000000 F F F O
   0.2426100000000000    0.2623140000000000    0.0442249000000000 F F F O
   0.2559420000000000    0.7382330000000000    0.0436785000000000 F F F O
   0.4986800000000001    0.2067080000000000    0.0007810810000000 F F F O
   0.0072915400000000    0.6963299999999999    0.0002777920000000 F F F O
   0.3038860000000000    0.5116130000000000    0.0000336940000000 F F F O
   0.7021790000000000    0.5024939999999999    0.0000071380000000 F F F O
   0.7871650000000001    0.9982329999999999    0.9995860000000000 F F F O
   0.2124990000000000    0.9861950000000000    0.9993000000000000 F F F O
   0.4969130000000000    0.7976529999999999    0.9991770000000000 F F F O
   0.0034930000000000    0.3021760000000000    0.9982270000000000 F F F O
  -0.0076203848022044    0.0006924633410884    0.3714401605875782 T T T O
   0.9975312700828979    0.4406018334668030    0.3710052512211585 T T T O
   0.4968782625969606    0.9748029881167912    0.3739387377830213 T T T O
   0.4978419421111172    0.4774310536541718    0.3738711355890658 T T T O
   0.0001444958428124    0.0174554163027000    0.2842023546447894 T T T O
   0.9976575434268087    0.4522078477215679    0.2805749507867012 T T T O
   0.4922513042051139    0.9776658544815412    0.2804756965529527 T T T O
   0.4964630356503237    0.4853065116875561    0.2774907594511969 T T T O
   1.2592672016412474    0.2339260807664566    0.2846164803808302 T T T Sr
   1.2577247203448414    0.2317457511657833    0.3688128191038087 T T T Sr
   0.0025580300000000    0.9991380000000000    0.0452371000000000 F F F Sr
   0.5051432609504555    0.4938254267429528    0.4276352823593444 T T T Sr
   0.7375977599310773    0.7298866021108940    0.3677776403000692 T T T Sr
   1.0016696070308744    0.4853223052090566    0.2246232573912336 T T T Sr
   0.4984901573217205    0.4883823898465411    0.1333049966832272 T T T Sr
   0.2589379035413300    0.7279427204346548    0.3671972101117496 T T T Sr
   0.4981942563203580   -0.0092524457436694    0.1340419100684729 T T T Sr
  -0.0028627687327782    0.4953231454986790    0.1343401244025908 T T T Sr
   0.4960230265154861    0.4889065084559018    0.2217226925795893 T T T Sr
   0.7339079349449342    0.7297265832769080    0.2858028798502177 T T T Sr
   0.7348300569409726    0.2340723906553283    0.2843776392968222 T T T Sr
   0.4885274012745777   -0.0035503864047662    0.4280489654284375 T T T Sr
   0.4977336229208073    0.9863980714919641    0.2254015587560494 T T T Sr
   0.9984091381723381   -0.0081917753328877    0.2276173912768443 T T T Sr
   0.9891643118620423    0.9949333766609783    0.4259379291249173 T T T Sr
   0.0061224125451378    0.4880366880261743    0.4253479955271842 T T T Sr
   0.7345829711583559    0.2312077366298271    0.3690723979203383 T T T Sr
   0.2584336122182760    0.7308158292230665    0.2858300884694633 T T T Sr
