LSF
   1.00000000000000
    7.9023977777800001    0.0004541627441710   -0.0053358984577747
     0.0004528280766766    7.9023977777800001    0.0012113725162610
    -0.0207718571413715    0.0047536778022240   43.3643938769000030
   La   Fe   O    Sr
    4    16    53    20
Selective dynamics
Direct
  -0.00402384 -0.0050398 0.132958 T T T
  0.503168 0.500295 0.0447939 F F F
  0.00628874 0.497576 0.0449424 F F F
  0.504964 0.999385 0.0448529 F F F
  0.495103 -0.0176633 0.327168 T T T
  0.99665 0.48947 0.326216 T T T
  0.496295 0.477046 0.326738 T T T
  -0.00404981 -0.0288445 0.327457 T T T
  0.751587 0.73298 0.183112 T T T
  0.247312 0.247979 0.181705 T T T
  0.749251 1.24911 0.182245 T T T
  0.244746 0.733899 0.1825 T T T
  0.75122 0.749789 0.0900045 F F F
  0.252556 0.248584 0.0899467 F F F
  0.252557 0.751988 0.0898348 F F F
  0.751511 0.250757 0.0898128 F F F
  0.755141 0.248603 0.999884 F F F
  0.755909 0.751301 0.99981 F F F
  0.248538 0.245622 0.999775 F F F
  0.251502 0.748487 0.999682 F F F
  0.238435 -0.00682577 0.328413 T T T
  -0.00230318 0.729312 0.327108 T T T
  0.494525 0.729354 0.326835 T T T
  0.495704 0.229564 0.326816 T T T
  0.243351 0.469161 0.326789 T T T
  0.749633 0.47053 0.326179 T T T
  0.752361 -0.00870984 0.326397 T T T
  0.244209 1.15931 0.425054 T T T
  0.737733 0.216837 0.425747 T T T
  0.75716 0.715152 0.423471 T T T
  0.247196 0.667792 0.424323 T T T
  0.246141 0.22199 0.226587 T T T
  0.242712 0.752659 0.228015 T T T
  0.749799 0.214746 0.226836 T T T
  0.75288 0.760227 0.228328 T T T
  0.761013 0.491085 0.183824 T T T
  0.998365 0.187955 0.180804 T T T
  0.498697 0.206426 0.182428 T T T
  0.498369 0.766851 0.182892 T T T
  0.236311 0.491092 0.181217 T T T
  0.998355 0.79153 0.182244 T T T
  0.243001 0.782932 0.138476 T T T
  0.746439 0.235526 0.137591 T T T
  0.756108 0.768741 0.138718 T T T
  0.253439 0.220164 0.137277 T T T
  0.00165103 0.205272 0.0929924 F F F
  0.00176857 0.794614 0.0917109 F F F
  0.20125 0.501479 0.0916148 F F F
  0.699841 0.000504295 0.0913373 F F F
  0.805961 0.50025 0.0898055 F F F
  0.501392 0.700656 0.0910833 F F F
  0.305888 0.999164 0.0875469 F F F
  0.501944 0.296243 0.0871561 F F F
  0.747685 0.747401 0.0455491 F F F
  0.758645 0.253936 0.0450867 F F F
  0.24261 0.262314 0.0442249 F F F
  0.255942 0.738233 0.0436785 F F F
  0.49868 0.206708 0.000781081 F F F
  0.00729154 0.69633 0.000277792 F F F
  0.303886 0.511613 3.3694e-05 F F F
  0.702179 0.502494 7.138e-06 F F F
  0.787165 0.998233 0.999586 F F F
  0.212499 0.986195 0.9993 F F F
  0.496913 0.797653 0.999177 F F F
  0.003493 0.302176 0.998227 F F F
  -0.0118905 0.00112875 0.371286 T T T
  0.996475 0.436273 0.371202 T T T
  0.499854 0.971589 0.374097 T T T
  0.499291 0.477329 0.374004 T T T
  -0.000239775 0.0163047 0.284132 T T T
  0.996778 0.451899 0.280508 T T T
  0.491826 0.976921 0.280444 T T T
  0.496235 0.485022 0.277512 T T T
  1.25866 0.233391 0.284582 T T T
  1.25753 0.229284 0.369054 T T T
  0.00255803 0.999138 0.0452371 F F F
  0.51977 0.500913 0.427298 T T T
  0.736823 0.733874 0.3665 T T T
  1.00118 0.484684 0.224469 T T T
  0.498547 0.488416 0.133265 T T T
  0.259225 0.724972 0.367642 T T T
  0.498051 -0.00944254 0.133999 T T T
  -0.00290696 0.495224 0.1343 T T T
  0.495546 0.488401 0.221688 T T T
  0.733087 0.729538 0.285583 T T T
  0.734334 0.233365 0.28427 T T T
  0.503129 -0.00274045 0.428012 T T T
  0.497214 0.98591 0.225302 T T T
  0.997971 -0.00874915 0.227506 T T T
  0.977113 0.998463 0.4257 T T T
  -0.0113429 0.494774 0.424904 T T T
  0.734186 0.233135 0.368207 T T T
  0.257683 0.730772 0.28588 T T T
