Sr14 La10 Fe20 O62
1.0
   7.9023977777800001    0.0000000000000000    0.0000000000000000
   0.0000000000000000    7.9023977777800001    0.0000000000000000
   0.0000000000000000    0.0000000000000000   43.3643938769000030
La Fe O Sr
10 20 62 14
Selective dynamics
direct
   0.9848636122465509    0.9956459974519919    0.3154130842260033 T T T La
   0.9811206969920143    0.4905172323199884    0.3157761887067602 T T T La
   0.9853429775748228   -0.0059410641528279    0.2250050628102620 T T T La
   0.4946168930494964    0.5080893241890192    0.2249305847561185 T T T La
   0.0069003241326556    0.0041836315868328    0.1358378169813654 T T T La
   0.5028287439925133    0.0043621660481907    0.1354886849645340 T T T La
   0.9971913702577985    0.5135487846280521    0.1344841723491658 T T T La
   0.0062887400000000    0.4975760000000001    0.0449424000000000 F F F La
   0.5049640000000000    0.9993850000000002    0.0448529000000000 F F F La
   0.5031679999999999    0.5002950000000000    0.0447939000000000 F F F La
   0.7440089930372653    0.2506948417507967    0.3631351832667843 T T T Fe
   0.2488544538891271    0.7507209287516843    0.3633941247471833 T T T Fe
   0.7322874452140706    0.7504180329840943    0.3644351843048280 T T T Fe
   0.2389546951464553    0.2490495320001926    0.3677604669890976 T T T Fe
   0.2450295769990747    0.7489155653012363    0.2741074280509820 T T T Fe
   0.7453866096710796    0.7508698071392985    0.2719923983225213 T T T Fe
   0.7453443927695450    0.2520095227429152    0.2714511680995084 T T T Fe
   0.2461026326516610    0.2520464381317720    0.2687388311445836 T T T Fe
   0.7447481226408652    0.7514947207038005    0.1808340755517395 T T T Fe
   0.2492140379588410    0.2519015924715058    0.1805266550804374 T T T Fe
   0.7479990168284041    0.2517202195419857    0.1807963695392808 T T T Fe
   0.2514220342279395    0.7511623591692659    0.1814297068704570 T T T Fe
   0.7512200000000000    0.7497890000000003    0.0900045000000000 F F F Fe
   0.2525560000000000    0.2485840000000000    0.0899467000000000 F F F Fe
   0.2525570000000000    0.7519880000000000    0.0898348000000000 F F F Fe
   0.7515110000000000    0.2507570000000000    0.0898128000000000 F F F Fe
   0.7551410000000000    0.2486030000000000    0.9998840000000000 F F F Fe
   0.7559090000000001    0.7513010000000000    0.9998100000000000 F F F Fe
   0.2485380000000000    0.2456220000000000    0.9997749999999999 F F F Fe
   0.2515020000000000    0.7484870000000000    0.9996820000000000 F F F Fe
   0.7439154050628767    0.2417990204518121    0.4088912153824562 T T T O
   0.7650866769045489    0.7593056053851314    0.4084374901640190 T T T O
   0.2363657195343945    0.2518826333328456    0.4113025302630386 T T T O
   0.2066138285062869    0.7467561551620212    0.4069615190483066 T T T O
   0.2371564070655218    0.4971283610461263    0.3608379513657797 T T T O
   0.2200852930953736    1.0025142766587283    0.3611778118865329 T T T O
   0.4907380258347088    0.7592048645249353    0.3614227481962148 T T T O
   0.7688415283485455   -0.0044114239567998    0.3606489094812126 T T T O
   0.1732918044361822    0.7506471606343645    0.3212457499158462 T T T O
   0.7888092224426896    0.7391082791713172    0.3197573415961042 T T T O
   0.7297892889605326    0.2673238466871259    0.3171390372476328 T T T O
   0.4840958877604806    0.2419650675381455    0.3612375076015276 T T T O
   0.7317431347909649    0.0019044154867975    0.2759134992933323 T T T O
   0.2259202302964544    0.4903303943057093    0.2812690681298993 T T T O
   0.0052735454932949    0.2299638624910443    0.2803672095539735 T T T O
  -0.0002611351466106    0.7879202295105129    0.2678667600303574 T T T O
   0.4952482657324166    0.7288121469321207    0.2780912995437073 T T T O
   0.2705084273981958    0.0120434295515935    0.2788096751781396 T T T O
   0.4944064730721555    0.2851244273545313    0.2665972374242950 T T T O
   0.7776097474934893    0.5033486420038898    0.2701573690469648 T T T O
   0.2099866932708318    0.2614843928527494    0.2261266282597297 T T T O
   0.2698154705319185    0.7314195990657201    0.2285543880252656 T T T O
   0.7875788376945305    0.2293931841286236    0.2267419863722050 T T T O
   0.7320376080447230    0.7691626001335773    0.2266546694478813 T T T O
   0.7080923986309905    0.5007361411942425    0.1854707884582458 T T T O
   0.1977639020383130    0.0001785938017634    0.1847337936318275 T T T O
   0.4986456618461730    0.2121800938405746    0.1857252570558897 T T T O
   0.4978961004995633    0.7983165046751880    0.1793647066096773 T T T O
   0.2926820677382145    0.5011972257898110    0.1798934407935406 T T T O
   0.9994650012804294    0.7149435870474633    0.1813521797451797 T T T O
   0.7969218776913359    0.0008755750002161    0.1782181457264426 T T T O
   0.9992800427481924    0.2927774660820036    0.1734154891832959 T T T O
   0.7260104077736529    0.2528638106045701    0.1355187370081573 T T T O
   0.7550351416991530    0.7391018140954299    0.1356311623584690 T T T O
   0.2720115075094226    0.2197549146546599    0.1355277053283863 T T T O
   0.2447484736068472    0.7738487839740997    0.1356080723283233 T T T O
   0.0016510300000000    0.2052720000000000    0.0929924000000000 F F F O
   0.0017685700000000    0.7946140000000000    0.0917109000000000 F F F O
   0.2012500000000000    0.5014790000000002    0.0916148000000000 F F F O
   0.6998410000000000    0.0005042950000000    0.0913373000000000 F F F O
   0.8059610000000003    0.5002500000000000    0.0898055000000000 F F F O
   0.5018950000000002    0.7052690000000000    0.0890508000000000 F F F O
   0.3058880000000000    0.9991640000000003    0.0875469000000000 F F F O
   0.5019439999999999    0.2962430000000000    0.0871561000000000 F F F O
   0.7476850000000000    0.7474010000000000    0.0455491000000000 F F F O
   0.7586450000000002    0.2539360000000000    0.0450867000000000 F F F O
   0.2426100000000000    0.2623140000000000    0.0442249000000000 F F F O
  -0.0004366805175903    0.2579937426970017    0.3570551285724994 T T T O
   0.2559420000000000    0.7382330000000000    0.0436785000000000 F F F O
   0.4986800000000002    0.2067080000000000    0.0007810810000000 F F F O
   0.0072915400000000    0.6963300000000000    0.0002777920000000 F F F O
   0.7548399168297490    0.5053819543582223    0.3648047385804865 T T T O
   0.3038860000000000    0.5116130000000000    0.0000336940000000 F F F O
   0.7021790000000000    0.5024940000000000    0.0000071380000000 F F F O
   0.7871650000000002    0.9982330000000000    0.9995859999999999 F F F O
   0.2124990000000000    0.9861950000000000    0.9993000000000000 F F F O
   0.4969130000000000    0.7976530000000002    0.9991769999999999 F F F O
   0.0034930000000000    0.3021760000000000    0.9982270000000000 F F F O
   0.0142300650330315    0.0036722667148182    0.4616827635464631 T T T O
   0.9858901276098958    0.4702453334990133    0.4610659360192285 T T T O
   0.4868167890029347    0.9677143515016506    0.4586154418580949 T T T O
   0.5157466733384055    0.5019254702777601    0.4586577144922724 T T T O
   0.4981383282116482    0.0088369197888914    0.4027134883583233 T T T Sr
   0.5089541617391382   -0.0014837733640479    0.3173177651450691 T T T Sr
   0.5013481870349051    0.4962425229554588    0.3166727354101175 T T T Sr
   0.4939448316556867   -0.0041727049851163    0.2280856206884368 T T T Sr
   0.9903315891753111    0.5025367410569859    0.2245014723477466 T T T Sr
   0.5029439549796010    0.4993856289969212    0.1347799387718754 T T T Sr
   0.0025580300000000    0.9991380000000000    0.0452371000000000 F F F Sr
  -0.0091107449903379    0.4954964552519614    0.4045455603698612 T T T Sr
   0.7209011114720391    0.7538993186242550    0.4624549533828180 T T T Sr
   0.7394791046802542    0.2727043636513075    0.4633378007100288 T T T Sr
   1.2188443200178256    0.2553236414306106    0.4651873074081352 T T T Sr
   0.2368882833251612    0.7745025572274880    0.4616449058752127 T T T Sr
   0.9874459499770185    1.0097987977584726    0.4049136584975392 T T T Sr
   0.4924746267671780    0.4928980423673602    0.4023857893552004 T T T Sr
