Sr22 La10 Fe20 O70
1.0
   7.9023977777800001    0.0000000000000000    0.0000000000000000
   0.0000000000000000    7.9023977777800001    0.0000000000000000
   0.0000000000000000    0.0000000000000000   43.3643938769000030
La Fe O Sr
10 20 70 22
Selective dynamics
direct
   0.9836166555628301    0.9947112782238424    0.3147624731073552 T T T La
   0.9812817023255379    0.4901415055327451    0.3150619195460929 T T T La
   0.9852192076852011   -0.0053022110600868    0.2246326443751459 T T T La
   0.4901090885322951    0.5092464389747590    0.2245921406735101 T T T La
   0.0086678206237303    0.0029481384680825    0.1356217093264593 T T T La
   0.5043217824291056    0.0016332759366567    0.1354821343471868 T T T La
   0.9959903810253354    0.5098084875504806    0.1342753861993960 T T T La
   0.0062887400000000    0.4975760000000001    0.0449424000000000 F F F La
   0.5049640000000000    0.9993850000000001    0.0448529000000000 F F F La
   0.5031679999999999    0.5002950000000000    0.0447939000000000 F F F La
   0.7426713186486552    0.2508387422530789    0.3620475168783342 T T T Fe
   0.2486448904534596    0.7507830949211793    0.3625380802887521 T T T Fe
   0.7320186574006582    0.7503093331628314    0.3634570961575621 T T T Fe
   0.2389402492999294    0.2492982848957195    0.3664144838593911 T T T Fe
   0.2440323536455057    0.7491291180423227    0.2737687942328928 T T T Fe
   0.7459783281992022    0.7505352776387088    0.2714109828463917 T T T Fe
   0.7450329438074689    0.2522221027209452    0.2711351961072923 T T T Fe
   0.2468371917087938    0.2521466801593166    0.2680650324842973 T T T Fe
   0.7443998608001156    0.7508849025551316    0.1807025863791339 T T T Fe
   0.2499225797362393    0.2511291274292406    0.1801182780899412 T T T Fe
   0.7467726811693626    0.2504536386529830    0.1808384440529792 T T T Fe
   0.2509391780472268    0.7505483037213596    0.1812550208927975 T T T Fe
   0.7512200000000000    0.7497890000000001    0.0900045000000000 F F F Fe
   0.2525560000000000    0.2485840000000000    0.0899467000000000 F F F Fe
   0.2525570000000000    0.7519880000000000    0.0898348000000000 F F F Fe
   0.7515110000000000    0.2507570000000000    0.0898128000000000 F F F Fe
   0.7551410000000000    0.2486030000000000    0.9998840000000000 F F F Fe
   0.7559090000000001    0.7513010000000000    0.9998100000000000 F F F Fe
   0.2485380000000000    0.2456220000000000    0.9997749999999999 F F F Fe
   0.2515020000000000    0.7484870000000000    0.9996820000000000 F F F Fe
   0.7405298006643075    0.2408229128628355    0.4079902789808747 T T T O
   0.7681120122137326    0.7608669772989433    0.4074299061974380 T T T O
   0.2378902384379763    0.2528558713098044    0.4101729738290256 T T T O
   0.2030314304654111    0.7464513098409278    0.4061009890540516 T T T O
   0.2414712281058087    0.4973944076899451    0.3600060856902237 T T T O
   0.2190207347946576    1.0026333913661452    0.3604171675045004 T T T O
   0.4903878713376662    0.7620425784905027    0.3611153933349738 T T T O
   0.7692581335198314   -0.0038768863487396    0.3594619963473577 T T T O
   0.1724712089936186    0.7511990358442261    0.3204678892270031 T T T O
   0.7894461122150936    0.7367880054790716    0.3193146447220942 T T T O
   0.7296133950937366    0.2700277198511248    0.3163654699342569 T T T O
   0.4841002184004520    0.2391206433482074    0.3603404557423860 T T T O
   0.7282912949208864    0.0014960975690458    0.2763919431049362 T T T O
   0.2257732499143689    0.4888508341460219    0.2815319951749834 T T T O
   0.0076634323678968    0.2272695629225406    0.2797159029787824 T T T O
  -0.0003743447339300    0.7923670124592860    0.2675006630429373 T T T O
   0.4956024887874755    0.7253019615016626    0.2769207960767573 T T T O
   0.2745253487201746    0.0115017071727228    0.2779559480996786 T T T O
   0.4946771087559478    0.2880870133848724    0.2662694994362875 T T T O
   0.7830207280140752    0.5036763314932065    0.2695718297618673 T T T O
   0.2136893147209700    0.2697999002557565    0.2254718591050323 T T T O
   0.2636214145460202    0.7257839558353353    0.2283474893402986 T T T O
   0.7861817326158722    0.2259988492587616    0.2267791385649972 T T T O
   0.7382611284334124    0.7741762995475617    0.2261870188238863 T T T O
   0.7059176759083480    0.4999640905602548    0.1862049688251520 T T T O
   0.1973021474745979   -0.0011597893370565    0.1851451869186262 T T T O
   0.4990912459552458    0.2071741187381508    0.1851994753268218 T T T O
   0.4975614609219121    0.7988720070098023    0.1803610277774902 T T T O
   0.2937403407402076    0.5010791804568275    0.1786595006257634 T T T O
   0.9991664467128327    0.7116208531893933    0.1798119251558028 T T T O
   0.7978694952532086   -0.0000107042405774    0.1774150624898214 T T T O
   0.9978787430895856    0.2919962034071810    0.1738862731205499 T T T O
   0.7283176897685122    0.2565656797289811    0.1355594939370870 T T T O
   0.7502288725647877    0.7363110526119273    0.1356248679416936 T T T O
   0.2703154543258155    0.2175634048140421    0.1355212155764789 T T T O
   0.2494226130962391    0.7789471175820752    0.1355922117841987 T T T O
   0.0016510300000000    0.2052720000000000    0.0929924000000000 F F F O
   0.0017685700000000    0.7946140000000000    0.0917109000000000 F F F O
   0.2012500000000000    0.5014790000000001    0.0916148000000000 F F F O
   0.6998410000000000    0.0005042950000000    0.0913373000000000 F F F O
   0.8059610000000001    0.5002500000000000    0.0898055000000000 F F F O
   0.5018950000000001    0.7052690000000000    0.0890508000000000 F F F O
   0.3058880000000000    0.9991640000000002    0.0875469000000000 F F F O
   0.5019439999999999    0.2962430000000000    0.0871561000000000 F F F O
   0.7476850000000000    0.7474010000000000    0.0455491000000000 F F F O
   0.7586450000000001    0.2539360000000000    0.0450867000000000 F F F O
   0.2426100000000000    0.2623140000000000    0.0442249000000000 F F F O
  -0.0011358493355593    0.2601816627648380    0.3566060461852448 T T T O
   0.2559420000000000    0.7382330000000000    0.0436785000000000 F F F O
   0.4986800000000001    0.2067080000000000    0.0007810810000000 F F F O
   0.0072915400000000    0.6963300000000000    0.0002777920000000 F F F O
   0.7504956807045550    0.5048061433630093    0.3646963633820656 T T T O
   0.3038860000000000    0.5116130000000000    0.0000336940000000 F F F O
   0.7021790000000000    0.5024940000000000    0.0000071380000000 F F F O
   0.7871650000000001    0.9982330000000000    0.9995859999999999 F F F O
   0.2124990000000000    0.9861950000000000    0.9993000000000000 F F F O
   0.4969130000000000    0.7976530000000001    0.9991769999999999 F F F O
   0.0034930000000000    0.3021760000000000    0.9982270000000000 F F F O
  -0.0033827575044776    0.0027715843568608    0.4631391680818926 T T T O
   0.9852830656775891    0.4896115904305415    0.4628622542755546 T T T O
   0.4866955452166796    0.9892963426770467    0.4615082593034759 T T T O
   0.4964449297919540    0.5030498849873823    0.4612332545508376 T T T O
   0.7383449309240748    0.2398944069846796    0.5212384766512583 T T T O
   0.4843564135481280    0.9735083490068955    0.5753560006905395 T T T O
   0.9935274248358704    0.4735470123296330    0.5755273599817431 T T T O
   0.2377217906702726    0.7404766756950110    0.5206399108103918 T T T O
   0.7385173320589977    0.7428221896880927    0.5209374752576522 T T T O
   0.4945458860213394    0.4761895016529948    0.5753015798693943 T T T O
   0.9846215421991169   -0.0275239708247503    0.5757204665456930 T T T O
   0.2436311830597260    0.2420173641821319    0.5216909384505130 T T T O
   0.9890264759714833    0.5164946776834374    0.5200352976909158 T T T Sr
   0.4986196539164120    0.0098211930540884    0.4027893307630189 T T T Sr
   0.5078868387427438   -0.0017637627347855    0.3171512841885320 T T T Sr
   0.4994825799137365    0.4957725143075514    0.3159186907985020 T T T Sr
   0.4952060660820172   -0.0047283313638842    0.2282861493960834 T T T Sr
   0.9878697203444358    0.5028728755905908    0.2234023996547014 T T T Sr
   0.5044692025015343    0.4994103914996410    0.1343883419477500 T T T Sr
   0.0025580300000000    0.9991380000000000    0.0452371000000000 F F F Sr
   0.4899647972006620    1.0123540013538368    0.5198258607895142 T T T Sr
   0.9876163113325256    1.0128487077803594    0.5201805854822723 T T T Sr
  -0.0108131805746634    0.4943084941625345    0.4044310950242956 T T T Sr
   0.7438588512064939    0.2706809469640701    0.5767207808485771 T T T Sr
   0.7366433974807644    0.7553403473705360    0.4628399487964508 T T T Sr
   0.7331314032340502    0.7697637427889497    0.5767845978239399 T T T Sr
   0.7414504930862834    0.2603591569184225    0.4635373466596249 T T T Sr
   0.4884918563913870    0.5143191773321182    0.5197168850606476 T T T Sr
   1.2358878192170502    0.2558417459448375    0.4646805281597604 T T T Sr
   0.2387594320042385    0.7617507998505846    0.4623535178200846 T T T Sr
   0.9881352888599537    1.0092873438914225    0.4044398913622795 T T T Sr
   0.2343292256458267    0.7703339133170917    0.5765912938978832 T T T Sr
   1.2451830411264233    0.2708455698241103    0.5769217018605521 T T T Sr
   0.4922801212453993    0.4917187434643296    0.4021691938082370 T T T Sr
