LSF
   1.00000000000000
   7.9023977777800001    0.0000000000000000    0.0000000000000000
   0.0000000000000000    7.9023977777800001    0.0000000000000000
   0.0000000000000000    0.0000000000000000   43.3643938769000030
   La   Fe   O    Sr
    10    20    70    22
Selective dynamics
Direct
  0.98018 0.992317 0.313815 T T T
  0.980787 0.496934 0.312503 T T T
  0.998212 0.00238691 0.227297 T T T
  0.490494 0.499047 0.225484 T T T
  0.00302388 0.00223549 0.135701 T T T
  0.500225 0.00158 0.135474 T T T
  0.999447 0.500591 0.134311 T T T
  0.00628874 0.497576 0.0449424 F F F
  0.504964 0.999385 0.0448529 F F F
  0.503168 0.500295 0.0447939 F F F
  0.74217 0.252308 0.361176 T T T
  0.250851 0.751819 0.36164 T T T
  0.732357 0.751121 0.363603 T T T
  0.235922 0.251087 0.365194 T T T
  0.248439 0.749861 0.270572 T T T
  0.744169 0.74846 0.270359 T T T
  0.742176 0.251666 0.270349 T T T
  0.246327 0.249867 0.270292 T T T
  0.748279 0.750781 0.180682 T T T
  0.248936 0.250432 0.180502 T T T
  0.74788 0.249978 0.180481 T T T
  0.249378 0.750252 0.180447 T T T
  0.75122 0.749789 0.0900045 F F F
  0.252556 0.248584 0.0899467 F F F
  0.252557 0.751988 0.0898348 F F F
  0.751511 0.250757 0.0898128 F F F
  0.755141 0.248603 0.999884 F F F
  0.755909 0.751301 0.99981 F F F
  0.248538 0.245622 0.999775 F F F
  0.251502 0.748487 0.999682 F F F
  0.738255 0.238122 0.407229 T T T
  0.771332 0.763919 0.407484 T T T
  0.237535 0.256763 0.409412 T T T
  0.210088 0.743336 0.405818 T T T
  0.235126 0.499627 0.35721 T T T
  0.20959 1.00224 0.359628 T T T
  0.492032 0.764983 0.361113 T T T
  0.769473 -0.00337972 0.357495 T T T
  0.206433 0.76043 0.317257 T T T
  0.777469 0.731307 0.31745 T T T
  0.73781 0.276977 0.315112 T T T
  0.480955 0.237977 0.357747 T T T
  0.725354 0.00197886 0.273827 T T T
  0.211907 0.492919 0.273453 T T T
  7.0202e-05 0.214745 0.272739 T T T
  0.000812911 0.786815 0.270718 T T T
  0.493819 0.714308 0.268639 T T T
  0.26917 0.00734364 0.267976 T T T
  0.491783 0.285748 0.266673 T T T
  0.780668 0.498592 0.266668 T T T
  0.235947 0.264528 0.22589 T T T
  0.246178 0.734535 0.224829 T T T
  0.763701 0.230088 0.224291 T T T
  0.757125 0.770854 0.224008 T T T
  0.713249 0.49913 0.183128 T T T
  0.20497 0.00148964 0.183031 T T T
  0.497792 0.214505 0.181658 T T T
  0.498871 0.786598 0.179716 T T T
  0.282666 0.498772 0.178512 T T T
  0.998983 0.718067 0.1774 T T T
  0.786204 0.00173865 0.17713 T T T
  0.999766 0.283852 0.176482 T T T
  0.741513 0.255507 0.135789 T T T
  0.750058 0.744714 0.135413 T T T
  0.261226 0.226508 0.135376 T T T
  0.252223 0.771706 0.135339 T T T
  0.00165103 0.205272 0.0929924 F F F
  0.00176857 0.794614 0.0917109 F F F
  0.20125 0.501479 0.0916148 F F F
  0.699841 0.000504295 0.0913373 F F F
  0.805961 0.50025 0.0898055 F F F
  0.501895 0.705269 0.0890508 F F F
  0.305888 0.999164 0.0875469 F F F
  0.501944 0.296243 0.0871561 F F F
  0.747685 0.747401 0.0455491 F F F
  0.758645 0.253936 0.0450867 F F F
  0.24261 0.262314 0.0442249 F F F
  -0.000941085 0.262591 0.353774 T T T
  0.255942 0.738233 0.0436785 F F F
  0.49868 0.206708 0.000781081 F F F
  0.00729154 0.69633 0.000277792 F F F
  0.748778 0.505221 0.364386 T T T
  0.303886 0.511613 3.3694e-05 F F F
  0.702179 0.502494 7.138e-06 F F F
  0.787165 0.998233 0.999586 F F F
  0.212499 0.986195 0.9993 F F F
  0.496913 0.797653 0.999177 F F F
  0.003493 0.302176 0.998227 F F F
  -0.00464037 0.00225471 0.463064 T T T
  0.98442 0.490854 0.462673 T T T
  0.486339 0.990434 0.461539 T T T
  0.495399 0.501604 0.461194 T T T
  0.738252 0.24107 0.521369 T T T
  0.483703 0.974188 0.575781 T T T
  0.993546 0.474803 0.575932 T T T
  0.237552 0.741079 0.520853 T T T
  0.738175 0.743873 0.521345 T T T
  0.494649 0.476952 0.575717 T T T
  0.984415 -0.0266311 0.576092 T T T
  0.24279 0.242927 0.521838 T T T
  0.98896 0.516755 0.520475 T T T
  0.495977 0.0112204 0.402824 T T T
  0.503968 -0.00318094 0.315986 T T T
  0.504128 0.50484 0.315313 T T T
  0.499334 0.000926567 0.226693 T T T
  0.996899 0.500617 0.224363 T T T
  0.500403 0.498455 0.134867 T T T
  0.00255803 0.999138 0.0452371 F F F
  0.489842 1.01273 0.520309 T T T
  0.987495 1.01302 0.520607 T T T
  -0.0109954 0.496696 0.404169 T T T
  0.744001 0.271695 0.577136 T T T
  0.737921 0.757108 0.463386 T T T
  0.732732 0.77046 0.577214 T T T
  0.740938 0.260022 0.463491 T T T
  0.488818 0.514721 0.520195 T T T
  1.23588 0.257497 0.4647 T T T
  0.239537 0.761925 0.462491 T T T
  0.987484 1.00919 0.404384 T T T
  0.233816 0.770552 0.577084 T T T
  1.24505 0.270948 0.577448 T T T
  0.489718 0.492943 0.402323 T T T
