Sr6 La14 Fe20 O50
1.0
   7.9023977777800001    0.0000000000000000    0.0000000000000000
   0.0000000000000000    7.9023977777800001    0.0000000000000000
   0.0000000000000000    0.0000000000000000   43.3643938769000030
La Fe O Sr
14 20 50 6
Selective dynamics
direct
   0.9773712950732800    1.0526250149949108    0.3130889677938765 T T T La
   1.0089333172191584    0.5581660957261787    0.3148156419901675 T T T La
   0.9928694700446826   -0.0099153666497526    0.2302679065754448 T T T La
   0.4956097885022885    0.5292927205843055    0.2294637829945472 T T T La
   0.0110150961772745    0.0027734505004135    0.1328435344934610 T T T La
   0.5005880153497518   -0.0042143030207384    0.1311189843045684 T T T La
   0.9952427105256185    0.5174520466950090    0.1322862741298684 T T T La
   0.0062887400000000    0.4975760000000001    0.0449424000000000 F F F La
   0.5049640000000000    0.9993850000000002    0.0448529000000000 F F F La
   0.5031679999999999    0.5002950000000000    0.0447939000000000 F F F La
   0.6042880788534258    0.2290741202668820    0.3973796222744537 T T T La
   0.2570183315875673    0.7616790611079390    0.3817490697653980 T T T La
   0.8046424285305294    0.8281078504392481    0.3783509486507073 T T T La
   0.0841843826839158    0.2944504806129052    0.3817709023670702 T T T La
   0.2265607140993211    0.6589340396761419    0.4696876933298308 T T T Fe
   0.9807200509828696    0.3952560565433554    0.4524859325418040 T T T Fe
   0.4834536698924260   -0.1604453576143610    0.4369620912355657 T T T Fe
   0.3542744074572674    0.4805929527067413    0.4372393910898024 T T T Fe
   0.2546103360968733    0.7766538679564766    0.2801981800189971 T T T Fe
   0.7480435588412453    0.7650664301930505    0.2742932417674934 T T T Fe
   0.7361764815434301    0.2732615934903315    0.2708121703362928 T T T Fe
   0.2495668731525503    0.2736477957527028    0.2735644047036922 T T T Fe
   0.7610428281671333    0.7710375720759943    0.1834126615485867 T T T Fe
   0.2399244971478838    0.2632230502798349    0.1836258896020322 T T T Fe
   0.7619281814735009    0.2539527794533200    0.1809084178695997 T T T Fe
   0.2613696906446396    0.7566590691386222    0.1804646989147418 T T T Fe
   0.7512200000000000    0.7497890000000003    0.0900045000000000 F F F Fe
   0.2525560000000000    0.2485840000000000    0.0899467000000000 F F F Fe
   0.2525570000000000    0.7519880000000000    0.0898348000000000 F F F Fe
   0.7515110000000000    0.2507570000000000    0.0898128000000000 F F F Fe
   0.7551410000000000    0.2486030000000000    0.9998840000000000 F F F Fe
   0.7559090000000001    0.7513010000000000    0.9998100000000000 F F F Fe
   0.2485380000000000    0.2456220000000000    0.9997749999999999 F F F Fe
   0.2515020000000000    0.7484870000000000    0.9996820000000000 F F F Fe
  -0.1291685246690067    0.2852373596647632    0.4207842403538765 T T T O
   0.1339961872222745    0.2897503295696158    0.3281414459017731 T T T O
   0.2981976385837153    0.7536336103422604    0.3309540177397985 T T T O
   0.7371510523323560    0.7815679902490431    0.3299852918498581 T T T O
   0.0592408741677965   -0.0247287880670454    0.3740011848201486 T T T O
   0.7312912646827937    0.0217302026916767    0.2738342769608880 T T T O
   0.7480016855202074    1.1552613262327578    0.3532969490392429 T T T O
   0.2234366720538273    0.5238858231378167    0.2747985242540028 T T T O
  -0.0047199839340862    0.2347674576195419    0.2654373510720270 T T T O
   0.0010164844618146    0.8043238288312476    0.2794558257338166 T T T O
   0.4967857805019724    0.7487803336426779    0.2698655591238246 T T T O
   0.4907633581960273    0.2853001149294744    0.2854941549169510 T T T O
   0.7737902458022886    0.5108429517095630    0.2835325432575768 T T T O
   0.2977790921371741    0.2856817092689207    0.2285515840750631 T T T O
   0.2596443392814118    0.0272679916316944    0.2784064126531815 T T T O
   0.6921323772353893    0.3110815229551577    0.2222124839803132 T T T O
   0.7723201785680744    0.7198098210500485    0.2272888646141534 T T T O
   0.2195952903270293    0.0018027890419369    0.1956069860302236 T T T O
   0.5246243786507696   -0.0544093443487790    0.3926083343549387 T T T O
   0.5077250745342415    0.8022568120933113    0.1881568081027792 T T T O
   0.3361667759440891    0.5044262770223579    0.1820065777460330 T T T O
   1.0199188880270069    0.7042277786270902    0.1837772947655487 T T T O
   0.8254161383930306    0.0087677354227724    0.1852718381236074 T T T O
   1.0076522649453927    0.3282596421103221    0.1795324208047258 T T T O
   0.7143571936939637    0.2550595606461364    0.1379664231889435 T T T O
   0.0019161339861430    0.5987727576687665    0.3689698954114428 T T T O
   0.7533322047032354    0.7326628604418028    0.1389691183912032 T T T O
   0.2767693587877608    0.2086594370701332    0.1394830021999026 T T T O
   0.2528408137412124    0.7890931819887012    0.1364961237296480 T T T O
   0.0016510300000000    0.2052720000000000    0.0929924000000000 F F F O
   0.0017685700000000    0.7946140000000000    0.0917109000000000 F F F O
   0.2012500000000000    0.5014790000000002    0.0916148000000000 F F F O
   0.6998410000000000    0.0005042950000000    0.0913373000000000 F F F O
   0.8059610000000003    0.5002500000000000    0.0898055000000000 F F F O
   0.5018950000000002    0.7052690000000000    0.0890508000000000 F F F O
   0.3058880000000000    0.9991640000000003    0.0875469000000000 F F F O
   0.5019439999999999    0.2962430000000000    0.0871561000000000 F F F O
   0.3604475201217202    0.3914881473436307    0.3892647268574179 T T T O
   0.7476850000000000    0.7474010000000000    0.0455491000000000 F F F O
   0.7586450000000002    0.2539360000000000    0.0450867000000000 F F F O
   0.2426100000000000    0.2623140000000000    0.0442249000000000 F F F O
   0.2559420000000000    0.7382330000000000    0.0436785000000000 F F F O
   0.4986800000000002    0.2067080000000000    0.0007810810000000 F F F O
   0.0072915400000000    0.6963300000000000    0.0002777920000000 F F F O
   0.3038860000000000    0.5116130000000000    0.0000336940000000 F F F O
   0.7021790000000000    0.5024940000000000    0.0000071380000000 F F F O
   0.7871650000000002    0.9982330000000000    0.9995859999999999 F F F O
   0.2124990000000000    0.9861950000000000    0.9993000000000000 F F F O
   0.4969130000000000    0.7976530000000002    0.9991769999999999 F F F O
   0.0034930000000000    0.3021760000000000    0.9982270000000000 F F F O
   0.5091052506278789    0.0125759277883059    0.3163335282966840 T T T Sr
   0.5079617000190274    0.5381510524248825    0.3158414258743979 T T T Sr
   0.4938940751988838    0.0217987460607002    0.2314479311426277 T T T Sr
   0.9959162526816041    0.4940399742903370    0.2292331129554673 T T T Sr
   0.4980656096063743    0.4979661871873095    0.1312086578951027 T T T Sr
   0.0025580300000000    0.9991380000000000    0.0452371000000000 F F F Sr
