Sr6 La14 Fe55 O50
1.0
   7.9023977777800001    0.0000000000000000    0.0000000000000000
   0.0000000000000000    7.9023977777800001    0.0000000000000000
   0.0000000000000000    0.0000000000000000   43.3643938769000030
La Fe O Sr
14 55 50 6
Selective dynamics
direct
   0.9940131836799828    1.0539970843746758    0.3140605223903398 T T T La
   0.9937552617303140    0.5479901163686490    0.3142649819742377 T T T La
   0.9933909071290252   -0.0067536956906749    0.2310438303029103 T T T La
   0.4996282673641659    0.5258770044920531    0.2307538487597540 T T T La
   0.0135639904158607    0.0015913730505806    0.1329029377316504 T T T La
   0.5009340548500998   -0.0043356255861723    0.1313053589427278 T T T La
   0.9950481370575487    0.5172267616918752    0.1322551551421444 T T T La
   0.0062887400000000    0.4975760000000001    0.0449424000000000 F F F La
   0.5049640000000000    0.9993850000000002    0.0448529000000000 F F F La
   0.5031679999999999    0.5002950000000000    0.0447939000000000 F F F La
   0.6206424429084059    0.2277499579141817    0.3943966551370028 T T T La
   0.2812943703129291    0.7728292714617833    0.3799491132562383 T T T La
   0.8176794399094094    0.8306479690837502    0.3768452756892123 T T T La
   0.1098759427227936    0.3087967167371595    0.3827391666890202 T T T La
   0.6557343093023318   -0.4052590890696942    0.5788159919112709 T T T Fe
   0.4776593885382333    0.3442382962882442    0.5817026660316773 T T T Fe
   0.8482479700729537    0.7226849131691058    0.4728346403465049 T T T Fe
   0.1459283778787931    0.3688589477161363    0.5797949279173981 T T T Fe
   0.1184867873595406    0.8703096774725730    0.4659500850100650 T T T Fe
   0.5105744949687866    0.6275020192749295    0.4896782296280000 T T T Fe
   0.7944693808822495    0.6006428061747993    0.5224801399270395 T T T Fe
   0.4982841066947259    0.1621420290851832    0.4932446998546341 T T T Fe
   0.6686179981060905   -0.0947621515582883    0.5031574216223427 T T T Fe
   0.3477912033717180    0.8949245824241990    0.5020711945235949 T T T Fe
   0.1289104312127512    0.1231125107515507    0.4980032299754866 T T T Fe
   1.1216834898910690    0.6338651629767013    0.4994478761411602 T T T Fe
   0.2392598000795449    0.8757209385383333    0.5541331258287330 T T T Fe
  -0.0226436902169482    0.8821947634927466    0.5171991995320258 T T T Fe
   0.5169976632604110    0.7561018512201826    0.5421385094032886 T T T Fe
   0.2750970003078081    1.0974768562665873    0.5941596083346935 T T T Fe
   0.9654198293316228    0.3716637752836624    0.4606967622762900 T T T Fe
   1.0123631031946925    0.1041578172781289    0.5583055994464611 T T T Fe
  -0.4292898466298493    0.3962434084586893    0.5280143104905186 T T T Fe
   0.2961139129121525    0.6439413266477578    0.5947810297719310 T T T Fe
   1.0103136485132871    0.6397317297412066    0.5617616608442595 T T T Fe
   0.7912434107644989    0.8663773927155681    0.5611081378185221 T T T Fe
   0.4799253520575879   -0.0973503459217830    0.4469667231958503 T T T Fe
   0.3041901215711895    0.2054276917279281    0.5394275849810571 T T T Fe
  -0.0157615626622882    0.5392391560333828    0.6150920418066578 T T T Fe
   0.6997745294178621    0.3980239946728888    0.6212933964844735 T T T Fe
   0.0508437381000753    0.8736355800475603    0.5994720045332731 T T T Fe
   0.5145602689074260    0.8807100205490813    0.5953014379952228 T T T Fe
   0.3089310890198951    0.3828759145872945    0.6276745322782230 T T T Fe
   0.5710144314295927    0.0824789352234356    0.5522057716332720 T T T Fe
   0.8066157419742063    0.1807471912399149    0.5145228473982191 T T T Fe
   0.7786208174034074    0.0840971772173326    0.6006153076732765 T T T Fe
   0.2933581205804824    0.3874844959897340    0.4923627807863476 T T T Fe
   0.8172418301809694    0.3464502333183594    0.5672956402840887 T T T Fe
   1.0341707613465538    0.3792576058486285    0.5257279823949781 T T T Fe
   0.3655337302541593    0.4310768983478590    0.4406798127466665 T T T Fe
   0.5170049879551688    0.1498777266911667    0.6261927917847000 T T T Fe
   0.3087044730166074    0.5435290269281827    0.5414508330001560 T T T Fe
   0.2533625801498121    0.7729125338782332    0.2808845914632446 T T T Fe
   0.7470694824491466    0.7594530079713063    0.2729023682613895 T T T Fe
   0.7358831434980893    0.2664810897362138    0.2702498222160379 T T T Fe
   0.2489434683668458    0.2724420063263438    0.2735748074701779 T T T Fe
   0.7825673243735567    0.7715529802898037    0.6174780408706282 T T T Fe
   0.7619938437036577    0.7731532145347131    0.1828140689118955 T T T Fe
   0.2413112825326140    0.2641031754426783    0.1837663178038962 T T T Fe
   0.7649610018854307    0.2519731373779764    0.1806848945881122 T T T Fe
   0.2633687066252884    0.7581595229288335    0.1804438743645230 T T T Fe
   0.7512200000000000    0.7497890000000003    0.0900045000000000 F F F Fe
   0.2525560000000000    0.2485840000000000    0.0899467000000000 F F F Fe
   0.2525570000000000    0.7519880000000000    0.0898348000000000 F F F Fe
   0.7515110000000000    0.2507570000000000    0.0898128000000000 F F F Fe
   0.7551410000000000    0.2486030000000000    0.9998840000000000 F F F Fe
   0.7559090000000001    0.7513010000000000    0.9998100000000000 F F F Fe
   0.2485380000000000    0.2456220000000000    0.9997749999999999 F F F Fe
   0.2515020000000000    0.7484870000000000    0.9996820000000000 F F F Fe
  -0.1249918193368636    0.2954561519002906    0.4096586549440118 T T T O
   0.1459573516742006    0.2968258700821685    0.3280566629793674 T T T O
   0.3145852515029593    0.7590269253289365    0.3295105734888594 T T T O
   0.7260423994759611    0.7402792948947586    0.3327291665786256 T T T O
   0.0781359644732894   -0.0179207037985113    0.3676145627185706 T T T O
   0.7430175883287643    0.0148815800117710    0.2715038748491074 T T T O
   0.7444722018738581    1.1199737841537787    0.3500231498207463 T T T O
   0.2294190200187061    0.5221790451058873    0.2753043045903958 T T T O
  -0.0055252465722116    0.2466785921049716    0.2664374090537161 T T T O
  -0.0012144394605793    0.7932581362582587    0.2820165934038024 T T T O
   0.4935977205652829    0.7586917210974393    0.2680783157953265 T T T O
   0.4909432786620863    0.2692848414927727    0.2844743142369542 T T T O
   0.7560761239193474    0.5077910510926382    0.2813849125489553 T T T O
   0.2939878110240473    0.2860632253889955    0.2284936756724806 T T T O
   0.2465496736515387    0.0236221272557138    0.2764981977979752 T T T O
   0.6904655300126529    0.3036362185824784    0.2216961201408627 T T T O
   0.7718219019466983    0.7144168922600372    0.2260558600638617 T T T O
   0.2177610966402062    0.0016067843648042    0.1956994900191694 T T T O
   0.5360464590667507   -0.0686617677614028    0.3946159526635508 T T T O
   0.5107107787613174    0.8164690896891740    0.1858246904968540 T T T O
   0.3408915296592211    0.5093763024829314    0.1832254106571573 T T T O
   1.0216671467136962    0.7030567294087322    0.1828569706636925 T T T O
   0.8337682821046973    0.0089145584391923    0.1848658738845056 T T T O
   1.0089523350005938    0.3294101989805747    0.1796697702230442 T T T O
   0.7148911051938501    0.2572504152316424    0.1380109311192289 T T T O
   0.0286304147551368    0.6013951725971771    0.3683085526654081 T T T O
   0.7544637351541056    0.7306269066810303    0.1386258698931069 T T T O
   0.2782509055869295    0.2113137244616037    0.1397214539449682 T T T O
   0.2535920537693024    0.7886757388724405    0.1363608006752511 T T T O
   0.0016510300000000    0.2052720000000000    0.0929924000000000 F F F O
   0.0017685700000000    0.7946140000000000    0.0917109000000000 F F F O
   0.2012500000000000    0.5014790000000002    0.0916148000000000 F F F O
   0.6998410000000000    0.0005042950000000    0.0913373000000000 F F F O
   0.8059610000000003    0.5002500000000000    0.0898055000000000 F F F O
   0.5018950000000002    0.7052690000000000    0.0890508000000000 F F F O
   0.3058880000000000    0.9991640000000003    0.0875469000000000 F F F O
   0.5019439999999999    0.2962430000000000    0.0871561000000000 F F F O
   0.3911219218768315    0.4244981381629575    0.3889476201106825 T T T O
   0.7476850000000000    0.7474010000000000    0.0455491000000000 F F F O
   0.7586450000000002    0.2539360000000000    0.0450867000000000 F F F O
   0.2426100000000000    0.2623140000000000    0.0442249000000000 F F F O
   0.2559420000000000    0.7382330000000000    0.0436785000000000 F F F O
   0.4986800000000002    0.2067080000000000    0.0007810810000000 F F F O
   0.0072915400000000    0.6963300000000000    0.0002777920000000 F F F O
   0.3038860000000000    0.5116130000000000    0.0000336940000000 F F F O
   0.7021790000000000    0.5024940000000000    0.0000071380000000 F F F O
   0.7871650000000002    0.9982330000000000    0.9995859999999999 F F F O
   0.2124990000000000    0.9861950000000000    0.9993000000000000 F F F O
   0.4969130000000000    0.7976530000000002    0.9991769999999999 F F F O
   0.0034930000000000    0.3021760000000000    0.9982270000000000 F F F O
   0.5213186480717057   -0.0048828788261540    0.3137496435418380 T T T Sr
   0.4983290333858640    0.5200204626426176    0.3169937558390314 T T T Sr
   0.4911015225675073    0.0220868660454924    0.2307588824244934 T T T Sr
   1.0009081201041932    0.4959945976998955    0.2286296867661427 T T T Sr
   0.4973074162936724    0.4985401594693623    0.1313520816122568 T T T Sr
   0.0025580300000000    0.9991380000000000    0.0452371000000000 F F F Sr
