Sr22 La10 Fe20 O90
1.0
   7.9023977777800001    0.0000000000000000    0.0000000000000000
   0.0000000000000000    7.9023977777800001    0.0000000000000000
   0.0000000000000000    0.0000000000000000   43.3643938769000030
La Fe O Sr
10 20 90 22
Selective dynamics
direct
   0.9957457397694600    0.9966839068700794    0.3153022149093065 T T T La
   0.9891860030110822    0.4986964069122544    0.3149432241970945 T T T La
   0.9982120000000000    0.0023869100000000    0.2272970000000000 F F F La
   0.4904940000000000    0.4990470000000000    0.2254840000000000 F F F La
   0.0030238800000000    0.0022354900000000    0.1357010000000000 F F F La
   0.5002250000000000    0.0015800000000000    0.1354740000000000 F F F La
   0.9994470000000001    0.5005910000000000    0.1343110000000000 F F F La
   0.0062887400000000    0.4975760000000001    0.0449424000000000 F F F La
   0.5049640000000000    0.9993850000000001    0.0448529000000000 F F F La
   0.5031679999999999    0.5002950000000000    0.0447939000000000 F F F La
   0.7458958401526965    0.2503686921531155    0.3614932813585766 T T T Fe
   0.2443145048019170    0.7494229789636425    0.3622781931321347 T T T Fe
   0.7434428950810708    0.7482574639606665    0.3621192702065539 T T T Fe
   0.2474756850317225    0.2491987162024656    0.3614573029725215 T T T Fe
   0.2484390000000000    0.7498610000000001    0.2705720000000000 F F F Fe
   0.7441690000000001    0.7484600000000001    0.2703590000000000 F F F Fe
   0.7421760000000001    0.2516660000000000    0.2703490000000000 F F F Fe
   0.2463270000000000    0.2498670000000000    0.2702920000000000 F F F Fe
   0.7482790000000000    0.7507810000000001    0.1806820000000000 F F F Fe
   0.2489360000000000    0.2504320000000000    0.1805020000000000 F F F Fe
   0.7478800000000001    0.2499780000000000    0.1804810000000000 F F F Fe
   0.2493780000000000    0.7502520000000001    0.1804470000000000 F F F Fe
   0.7512200000000000    0.7497890000000001    0.0900045000000000 F F F Fe
   0.2525560000000000    0.2485840000000000    0.0899467000000000 F F F Fe
   0.2525570000000000    0.7519880000000000    0.0898348000000000 F F F Fe
   0.7515110000000000    0.2507570000000000    0.0898128000000000 F F F Fe
   0.7551410000000000    0.2486030000000000    0.9998840000000000 F F F Fe
   0.7559090000000001    0.7513010000000000    0.9998100000000000 F F F Fe
   0.2485380000000000    0.2456220000000000    0.9997749999999999 F F F Fe
   0.2515020000000000    0.7484870000000000    0.9996820000000000 F F F Fe
   0.7594773467120938    0.2400683325544630    0.4070057331974936 T T T O
   0.2508529474513123    0.2616714262184747    0.4068681008467381 T T T O
   0.2435558862165217    0.7387956894100243    0.4087143828947103 T T T O
   1.0795796639394877    0.0641981736978269    0.5842943260453173 T T T O
   0.2971297076272312    0.2920261680446108    0.5421524659737117 T T T O
   0.7481906710354316    0.4999098958848544    0.3625891368496789 T T T O
   0.4976605714933386    0.2472855180115822    0.3607414131484946 T T T O
   0.2375871975692498    0.9988261139981378    0.3621778635387533 T T T O
   0.4941302133571513    0.7511987990750555    0.3596883366931408 T T T O
   0.9943317040931413    0.7473607666325622    0.3602279669959879 T T T O
   0.2400408445021705    0.5001637434625766    0.3574902484965005 T T T O
   0.9966685154210304    0.2510902143504109    0.3579034940701409 T T T O
   0.7521748237418773   -0.0009355036315487    0.3568311464563962 T T T O
   0.5823728093569794    0.2421370675056987    0.6506375677449466 T T T O
   0.2340579969129230    0.7666881997932081    0.3152075261732286 T T T O
   0.7617920136049204    0.7277682721923576    0.3150528281403630 T T T O
   0.0438625238401865    0.0475306649471296    0.4568159200629595 T T T O
   0.7496679384271556    0.2749417682107607    0.3150120819000281 T T T O
   0.2483891025932294    0.2328677310727625    0.3156695695218654 T T T O
   0.7253540000000002    0.0019788600000000    0.2738270000000000 F F F O
   0.1700425843875856    0.7891284627679521    0.5247923946633392 T T T O
   0.2262268631442502   -0.0217286384423568    0.6500099956364728 T T T O
   0.2119070000000000    0.4929190000000000    0.2734530000000000 F F F O
   0.0000702020000000    0.2147450000000000    0.2727390000000000 F F F O
   0.0008129110000000    0.7868150000000000    0.2707180000000000 F F F O
   0.4938190000000000    0.7143080000000002    0.2686390000000000 F F F O
   0.7977698584860995    0.2915539396399193    0.5417361759388117 T T T O
   0.2691700000000001    0.0073436400000000    0.2679759999999999 F F F O
   0.4917830000000001    0.2857480000000000    0.2666729999999999 F F F O
   0.7806680000000000    0.4985920000000000    0.2666680000000000 F F F O
   0.1853389907943008    0.2087926801883234    0.5190501364594685 T T T O
   0.2359470000000000    0.2645280000000000    0.2258900000000000 F F F O
   0.2461780000000000    0.7345350000000002    0.2248290000000000 F F F O
   0.7637010000000001    0.2300880000000000    0.2242910000000000 F F F O
   0.7571250000000002    0.7708540000000000    0.2240080000000000 F F F O
   0.7132490000000000    0.4991300000000001    0.1831280000000000 F F F O
   0.2049700000000000    0.0014896400000000    0.1830310000000000 F F F O
   0.4977920000000001    0.2145050000000000    0.1816580000000000 F F F O
   0.7392322659220157    0.7593555562789749    0.4085349182735077 T T T O
   0.4988710000000001    0.7865980000000001    0.1797160000000000 F F F O
   0.2826660000000000    0.4987720000000000    0.1785120000000000 F F F O
   0.9989830000000001    0.7180670000000000    0.1774000000000000 F F F O
   0.4239570510303441    0.5462456284182995    0.4801938556116801 T T T O
   0.7862040000000000    0.0017386500000000    0.1771300000000000 F F F O
   0.9997660000000002    0.2838520000000000    0.1764820000000000 F F F O
   0.7415130000000001    0.2555070000000000    0.1357890000000000 F F F O
   0.7500580000000000    0.7447140000000000    0.1354130000000000 F F F O
   0.5619206990830214    0.4663427870915247    0.5928053354891580 T T T O
   0.2612260000000000    0.2265080000000000    0.1353760000000000 F F F O
   0.2522230000000000    0.7717060000000001    0.1353390000000000 F F F O
   0.0016510300000000    0.2052720000000000    0.0929924000000000 F F F O
   0.0017685700000000    0.7946140000000000    0.0917109000000000 F F F O
   0.2012500000000000    0.5014790000000001    0.0916148000000000 F F F O
   0.6998410000000000    0.0005042950000000    0.0913373000000000 F F F O
   0.8059610000000001    0.5002500000000000    0.0898055000000000 F F F O
   0.5018950000000001    0.7052690000000000    0.0890508000000000 F F F O
   0.5791449829914008    0.0672079998758352    0.5841910727288480 T T T O
   0.3058880000000000    0.9991640000000002    0.0875469000000000 F F F O
   0.5019439999999999    0.2962430000000000    0.0871561000000000 F F F O
   0.7476850000000000    0.7474010000000000    0.0455491000000000 F F F O
   0.7586450000000001    0.2539360000000000    0.0450867000000000 F F F O
   0.2426100000000000    0.2623140000000000    0.0442249000000000 F F F O
   0.2559420000000000    0.7382330000000000    0.0436785000000000 F F F O
   0.7217247315716437    0.9901313556155755    0.6496277680029762 T T T O
   0.4986800000000001    0.2067080000000000    0.0007810810000000 F F F O
   0.0072915400000000    0.6963300000000000    0.0002777920000000 F F F O
   0.3038860000000000    0.5116130000000000    0.0000336940000000 F F F O
   0.7021790000000000    0.5024940000000000    0.0000071380000000 F F F O
   0.7871650000000001    0.9982330000000000    0.9995859999999999 F F F O
   0.2124990000000000    0.9861950000000000    0.9993000000000000 F F F O
  -0.0559228954668208    0.5624551702405979    0.6115726305225505 T T T O
   0.5884803003951571    0.0785736250548196    0.6614574627944014 T T T O
   0.4969130000000000    0.7976530000000001    0.9991769999999999 F F F O
   0.7836678784845552    0.7015467861441858    0.5472088963035284 T T T O
   0.0034930000000000    0.3021760000000000    0.9982270000000000 F F F O
   0.9207012909296829   -0.0489065200551669    0.4755907791658318 T T T O
   0.0387002939083623    0.4593639380872119    0.4591466719239125 T T T O
   0.4199504240807783    0.9510131004832613    0.4757177258337649 T T T O
   0.5408536920774126    0.4604723370311191    0.4581090195617236 T T T O
   0.6849071370375843    0.2075297163164320    0.5188756029022759 T T T O
   0.5391694290022551    1.0493276130753608    0.4564820574276435 T T T O
   0.6708802387269127    0.7887353426546125    0.5247680602694205 T T T O
   0.2851445924916418    0.7007200234665351    0.5466817185553844 T T T O
   0.0835171504573163    0.0576512919096726    0.6603974282310326 T T T O
   0.4457726783249819    0.5614845780902784    0.6131994947076895 T T T O
   0.9416837060870936    0.9577123372604931    0.5944700476478821 T T T O
   0.0663820932397065    0.4646799064163031    0.5928132577983333 T T T O
   0.4420663938738639    0.9580657021682194    0.5940545902030540 T T T O
   0.9204378571366720    0.5486420282754949    0.4803290376325894 T T T O
   0.0688654428596283    0.2187177439727530    0.6490589482161971 T T T O
   0.0438653075102243    0.4928612679644842    0.5350531694961673 T T T Sr
   0.6781781168696501    0.7540624651136170    0.4652885103208916 T T T Sr
   0.4897009002934317   -0.0015461644749473    0.3158723352408654 T T T Sr
   0.4925731277397216    0.4977582518846701    0.3154057895140729 T T T Sr
   0.4993340000000001    0.0009265670000000    0.2266930000000000 F F F Sr
   0.9968990000000001    0.5006170000000000    0.2243630000000000 F F F Sr
   0.5004030000000000    0.4984550000000000    0.1348670000000000 F F F Sr
   0.0025580300000000    0.9991380000000000    0.0452371000000000 F F F Sr
  -0.0111657913160583   -0.0006724694790310    0.3997459541802259 T T T Sr
  -0.0015443017760466    0.4957942400664123    0.3998267486988381 T T T Sr
   0.7890464435153558    1.2496296511166622    0.4639432603639125 T T T Sr
   0.8280943891680804    1.2588361836569533    0.6070679228176391 T T T Sr
   0.2891228918716227    1.2523750149018125    0.4638411861666678 T T T Sr
   0.4915105480557353    0.5004718626615614    0.3993926707861743 T T T Sr
   0.1795053548857356    0.7521684916489099    0.4653670969537067 T T T Sr
   0.4962062440579202    1.0002458410562824    0.3992358132243671 T T T Sr
   0.5441623984642143    0.4927268379373896    0.5351701803472878 T T T Sr
   0.4238223773042049   -0.0022935801974685    0.5351204644259718 T T T Sr
  -0.0762551156376968   -0.0038994189823361    0.5352869963763046 T T T Sr
   0.6885302712852882    0.7640549667448491    0.6037880745813327 T T T Sr
   0.3313681767114467    0.2550026985706700    0.6082999204806180 T T T Sr
   0.1897341341114163    0.7607663222644518    0.6032025856862580 T T T Sr
