Sr10 La10 Fe20 O58
1.0
   7.9023977777800001    0.0000000000000000    0.0000000000000000
   0.0000000000000000    7.9023977777800001    0.0000000000000000
   0.0000000000000000    0.0000000000000000   43.3643938769000030
La Fe O Sr
10 20 58 10
Selective dynamics
direct
   0.9889571168967212    0.9951213204562532    0.3158964166828062 T T T La
   0.9831484550722487    0.4910068950835301    0.3157339663011552 T T T La
   0.9866596469059574   -0.0064720615745279    0.2249853306941796 T T T La
   0.5008168318213876    0.5101960859953311    0.2257675390233586 T T T La
   0.0046636495132750    0.0061709050929807    0.1359957906539337 T T T La
   0.5022086942724882    0.0080034951795135    0.1355009542485423 T T T La
   0.9995689367569149    0.5194781110967414    0.1347496627890118 T T T La
   0.0062887400000000    0.4975760000000001    0.0449424000000000 F F F La
   0.5049640000000000    0.9993850000000002    0.0448529000000000 F F F La
   0.5031679999999999    0.5002950000000000    0.0447939000000000 F F F La
   0.7469371466917374    0.2477910575484968    0.3631759446320459 T T T Fe
   0.2480052246891886    0.7478074906272869    0.3633105341410466 T T T Fe
   0.7345348478685543    0.7499590333514975    0.3648476440573414 T T T Fe
   0.2403331930698665    0.2466898310078944    0.3679105038743501 T T T Fe
   0.2464158224292954    0.7499321216528682    0.2744544899112266 T T T Fe
   0.7450826665884377    0.7513790017305422    0.2726300306829968 T T T Fe
   0.7460904276896867    0.2511924994565169    0.2719137467719675 T T T Fe
   0.2451675704270244    0.2509738280177495    0.2689405409137809 T T T Fe
   0.7444452413770899    0.7523591922855694    0.1811048380893198 T T T Fe
   0.2491525435388607    0.2529748960724882    0.1808915396004148 T T T Fe
   0.7485164526476317    0.2533958245299210    0.1810361067908380 T T T Fe
   0.2526438041846238    0.7522879465743855    0.1818538542259708 T T T Fe
   0.7512200000000000    0.7497890000000003    0.0900045000000000 F F F Fe
   0.2525560000000000    0.2485840000000000    0.0899467000000000 F F F Fe
   0.2525570000000000    0.7519880000000000    0.0898348000000000 F F F Fe
   0.7515110000000000    0.2507570000000000    0.0898128000000000 F F F Fe
   0.7551410000000000    0.2486030000000000    0.9998840000000000 F F F Fe
   0.7559090000000001    0.7513010000000000    0.9998100000000000 F F F Fe
   0.2485380000000000    0.2456220000000000    0.9997749999999999 F F F Fe
   0.2515020000000000    0.7484870000000000    0.9996820000000000 F F F Fe
   0.7439077185085445    0.2407684102639487    0.4083689870307562 T T T O
   0.7654806570311001    0.7607404544087666    0.4083494704897080 T T T O
   0.2335504302530272    0.2541939320792601    0.4116994960619670 T T T O
   0.1764727643164055    0.7365579679577590    0.4045467417728733 T T T O
   0.2652441142773251    0.4913186290748611    0.3586516907513579 T T T O
   0.2098377989515169    1.0026767694659771    0.3601987308924583 T T T O
   0.4906400760810110    0.7734933946322177    0.3640373301769890 T T T O
   0.7828814597115892   -0.0059988830771708    0.3606642543832774 T T T O
   0.1720749093506284    0.7458258513774584    0.3209871248039043 T T T O
   0.7896823498975093    0.7389235556431422    0.3201504488105206 T T T O
   0.7266862966484611    0.2640088786459363    0.3173159374588348 T T T O
   0.4880646401425665    0.2246210276200305    0.3624558737393518 T T T O
   0.7363074649227546    0.0016462200821554    0.2755600660874291 T T T O
   0.2277598701100788    0.4909902553461493    0.2797922087400181 T T T O
   0.0051687415692087    0.2351125562837541    0.2815546369707964 T T T O
   0.0001567147025171    0.7825974958370351    0.2668731447064454 T T T O
   0.4949164563799640    0.7337604838226940    0.2800770534592218 T T T O
   0.2666011648702610    0.0133440884099889    0.2802559388969880 T T T O
   0.4935650532694145    0.2812809323675075    0.2663531482883316 T T T O
   0.7729748146474951    0.5031875464650267    0.2707658576060428 T T T O
   0.2001996103484417    0.2485472549383006    0.2265320133063269 T T T O
   0.2799553646793730    0.7394527143469769    0.2288645793875865 T T T O
   0.7900409204595279    0.2344914054730613    0.2270045537769224 T T T O
   0.7193440859206148    0.7626742682662686    0.2271025441630711 T T T O
   0.7073203994844697    0.5017228924361996    0.1846948251951660 T T T O
   0.1975834859912620    0.0006869977372246    0.1836998436900520 T T T O
   0.4982746187966831    0.2144481771004770    0.1866256926818433 T T T O
   0.4983155493220522    0.8016735422863925    0.1779145146271226 T T T O
   0.2940524354611900    0.5016317516616217    0.1814683340625113 T T T O
   0.9993523050675940    0.7165009447050278    0.1835956245829146 T T T O
   0.7983105787552067    0.0019678441582223    0.1793838739112844 T T T O
   0.9994631498659717    0.2953739277512408    0.1729052275271023 T T T O
   0.7221383019974117    0.2470603063555090    0.1357771850624678 T T T O
   0.7619598913150382    0.7426641124466091    0.1358932330520547 T T T O
   0.2743208751842860    0.2234765186748610    0.1356357722968465 T T T O
   0.2369727073313057    0.7667481919667722    0.1358579677971583 T T T O
   0.0016510300000000    0.2052720000000000    0.0929924000000000 F F F O
   0.0017685700000000    0.7946140000000000    0.0917109000000000 F F F O
   0.2012500000000000    0.5014790000000002    0.0916148000000000 F F F O
   0.6998410000000000    0.0005042950000000    0.0913373000000000 F F F O
   0.8059610000000003    0.5002500000000000    0.0898055000000000 F F F O
   0.5018950000000002    0.7052690000000000    0.0890508000000000 F F F O
   0.3058880000000000    0.9991640000000003    0.0875469000000000 F F F O
   0.5019439999999999    0.2962430000000000    0.0871561000000000 F F F O
   0.7476850000000000    0.7474010000000000    0.0455491000000000 F F F O
   0.7586450000000002    0.2539360000000000    0.0450867000000000 F F F O
   0.2426100000000000    0.2623140000000000    0.0442249000000000 F F F O
   0.0017884070570521    0.2718853970249947    0.3566870156201776 T T T O
   0.2559420000000000    0.7382330000000000    0.0436785000000000 F F F O
   0.4986800000000002    0.2067080000000000    0.0007810810000000 F F F O
   0.0072915400000000    0.6963300000000000    0.0002777920000000 F F F O
   0.7450457393930315    0.5046242055590062    0.3648978208801543 T T T O
   0.3038860000000000    0.5116130000000000    0.0000336940000000 F F F O
   0.7021790000000000    0.5024940000000000    0.0000071380000000 F F F O
   0.7871650000000002    0.9982330000000000    0.9995859999999999 F F F O
   0.2124990000000000    0.9861950000000000    0.9993000000000000 F F F O
   0.4969130000000000    0.7976530000000002    0.9991769999999999 F F F O
   0.0034930000000000    0.3021760000000000    0.9982270000000000 F F F O
   0.5130889792374167    0.0076072796133262    0.4038911029903116 T T T Sr
   0.5112724782604541   -0.0024455292201078    0.3179930026712793 T T T Sr
   0.5012358820399125    0.4931411295589102    0.3165433276477096 T T T Sr
   0.4936145851905348   -0.0035352481656842    0.2283545653826183 T T T Sr
   0.9929832207802038    0.5014903158545436    0.2255817506829461 T T T Sr
   0.5023420470146043    0.4995316844085951    0.1352089917111314 T T T Sr
   0.0025580300000000    0.9991380000000000    0.0452371000000000 F F F Sr
  -0.0183253062877491    0.4884198912450988    0.4062509377406489 T T T Sr
   0.9922678429325873    1.0020811439021657    0.4059506547325712 T T T Sr
   0.4935798786130743    0.4820328164753576    0.4016950819070302 T T T Sr
