LSF
   1.00000000000000
   7.9023977777800001    0.0000000000000000    0.0000000000000000
   0.0000000000000000    7.9023977777800001    0.0000000000000000
   0.0000000000000000    0.0000000000000000   43.3643938769000030
   La   Fe   O    Sr
    10    20    58    10
Selective dynamics
Direct
  0.99833 1.00334 0.319143 T T T
  0.995359 0.485874 0.317362 T T T
  1.00587 0.0035047 0.228674 T T T
  0.472216 0.494329 0.225438 T T T
  0.00852731 -0.00444997 0.136744 T T T
  0.504457 -0.00403132 0.136482 T T T
  0.99383 0.492898 0.134772 T T T
  0.00628874 0.497576 0.0449424 F F F
  0.504964 0.999385 0.0448529 F F F
  0.503168 0.500295 0.0447939 F F F
  0.738937 0.249974 0.363606 T T T
  0.240355 0.750589 0.36307 T T T
  0.742509 0.749885 0.368022 T T T
  0.239316 0.249314 0.364668 T T T
  0.244764 0.746051 0.273225 T T T
  0.746816 0.746238 0.269509 T T T
  0.742372 0.24333 0.273212 T T T
  0.244106 0.246735 0.272302 T T T
  0.747878 0.747768 0.181236 T T T
  0.247967 0.248213 0.181069 T T T
  0.745675 0.24707 0.181801 T T T
  0.246562 0.746733 0.181561 T T T
  0.75122 0.749789 0.0900045 F F F
  0.252556 0.248584 0.0899467 F F F
  0.252557 0.751988 0.0898348 F F F
  0.751511 0.250757 0.0898128 F F F
  0.755141 0.248603 0.999884 F F F
  0.755909 0.751301 0.99981 F F F
  0.248538 0.245622 0.999775 F F F
  0.251502 0.748487 0.999682 F F F
  0.769372 0.753291 0.41114 T T T
  0.242817 0.262018 0.409113 T T T
  0.72279 0.507608 0.360088 T T T
  0.741004 0.238178 0.407459 T T T
  0.211752 0.99942 0.364593 T T T
  0.49672 0.771177 0.364897 T T T
  0.979964 0.72785 0.353191 T T T
  0.248975 0.500471 0.35913 T T T
  0.990572 0.26866 0.361141 T T T
  0.765288 -0.00855762 0.358303 T T T
  0.265663 0.77107 0.317429 T T T
  0.240478 0.230531 0.317504 T T T
  0.716403 -0.0223647 0.280343 T T T
  0.214276 0.497579 0.277147 T T T
  -0.00760294 0.209666 0.274773 T T T
  -0.0165694 0.774489 0.280718 T T T
  0.504966 0.70738 0.267849 T T T
  0.259503 -0.00535347 0.267538 T T T
  0.495946 0.277266 0.269226 T T T
  0.779008 0.507493 0.27451 T T T
  0.230405 0.273402 0.226809 T T T
  0.220714 0.722066 0.227504 T T T
  0.768003 0.21689 0.228029 T T T
  0.787931 0.779445 0.226558 T T T
  0.707893 0.498065 0.188092 T T T
  0.196543 -0.00241675 0.185262 T T T
  0.496657 0.207321 0.183738 T T T
  0.497546 0.785587 0.184949 T T T
  0.286521 0.498113 0.178003 T T T
  0.998167 0.707506 0.174867 T T T
  0.788042 -0.00145296 0.176544 T T T
  0.997129 0.285243 0.176961 T T T
  0.736695 0.264377 0.135765 T T T
  0.488456 0.234014 0.36296 T T T
  0.735106 0.738335 0.13574 T T T
  0.262207 0.21847 0.135611 T T T
  0.264411 0.783152 0.135808 T T T
  0.00165103 0.205272 0.0929924 F F F
  0.00176857 0.794614 0.0917109 F F F
  0.20125 0.501479 0.0916148 F F F
  0.699841 0.000504295 0.0913373 F F F
  0.805961 0.50025 0.0898055 F F F
  0.501895 0.705269 0.0890508 F F F
  0.305888 0.999164 0.0875469 F F F
  0.501944 0.296243 0.0871561 F F F
  0.747685 0.747401 0.0455491 F F F
  0.219435 0.740506 0.406995 T T T
  0.758645 0.253936 0.0450867 F F F
  0.24261 0.262314 0.0442249 F F F
  0.255942 0.738233 0.0436785 F F F
  0.49868 0.206708 0.000781081 F F F
  0.00729154 0.69633 0.000277792 F F F
  0.303886 0.511613 3.3694e-05 F F F
  0.702179 0.502494 7.138e-06 F F F
  0.787165 0.998233 0.999586 F F F
  0.212499 0.986195 0.9993 F F F
  0.496913 0.797653 0.999177 F F F
  0.003493 0.302176 0.998227 F F F
  0.483237 1.00968 0.403667 T T T
  0.479898 0.499374 0.401639 T T T
  0.483338 0.00832925 0.319448 T T T
  0.480494 0.485804 0.316894 T T T
  0.503861 -0.00169746 0.228742 T T T
  0.985507 0.495096 0.225351 T T T
  0.502458 0.498438 0.134965 T T T
  0.00255803 0.999138 0.0452371 F F F
  0.984996 0.00357561 0.405377 T T T
  -0.00474927 0.500867 0.402974 T T T
