Sr6 La14 Fe36 O50
1.0
   7.9023977777800001    0.0000000000000000    0.0000000000000000
   0.0000000000000000    7.9023977777800001    0.0000000000000000
   0.0000000000000000    0.0000000000000000   43.3643938769000030
La Fe O Sr
14 36 50 6
Selective dynamics
direct
   0.9853105925708554    1.0654588560320242    0.3139971414081394 T T T La
   1.0141059425912891    0.5673443624876020    0.3149168238110404 T T T La
   0.9924834911967332   -0.0061594293948811    0.2307897200977149 T T T La
   0.4954701236580702    0.5311550762477454    0.2296965815776107 T T T La
   0.0121684857587388    0.0026585926825675    0.1329856713935864 T T T La
   0.5010349537705795   -0.0043420764141655    0.1310914427115859 T T T La
   0.9949913002031502    0.5177739783162604    0.1323260488174134 T T T La
   0.0062887400000000    0.4975760000000001    0.0449424000000000 F F F La
   0.5049640000000000    0.9993850000000002    0.0448529000000000 F F F La
   0.5031679999999999    0.5002950000000000    0.0447939000000000 F F F La
   0.6088005196822890    0.2494072209541487    0.3923812833481061 T T T La
   0.2756103291381634    0.7669351164006660    0.3808127598686882 T T T La
   0.8154310477165569    0.8394258324430603    0.3783025999003454 T T T La
   0.0944384457986545    0.3149735349276409    0.3832087945140247 T T T La
   0.8977424920291641    0.8477387782851084    0.4748293431206139 T T T Fe
   0.2239469005979742    0.8421825992948839    0.4734590125651221 T T T Fe
   0.4432371537375800    0.6257971569007744    0.4911891361313397 T T T Fe
   0.7847761761475758    0.5536788253172008    0.5064961817551780 T T T Fe
   0.4386459893854864    0.0729951206839894    0.4959769290401460 T T T Fe
   0.6481873166585616   -0.1459276838441105    0.5078732306910003 T T T Fe
   0.3089917551923166    0.8391050234482065    0.5277231552169126 T T T Fe
   0.0995811938764625    0.0783846279427928    0.5000175189154984 T T T Fe
   1.0981545268940647    0.6061124604486190    0.4965244135633307 T T T Fe
  -0.0381549446502699    0.8385638877484958    0.5273449515957346 T T T Fe
   0.5601500050700533    0.6381844400636626    0.5432608240261360 T T T Fe
   0.9494680412784720    0.3365758223192212    0.4613684933652626 T T T Fe
  -0.4566359513030517    0.3523217843929317    0.5186841475230018 T T T Fe
   0.5525247145986977   -0.1283172308254514    0.4453988399842862 T T T Fe
   0.2879041152429276    0.1943933135454233    0.5397850895109507 T T T Fe
   0.7845397424170578    0.1415357194949637    0.5078897639522988 T T T Fe
   0.2714908742446567    0.3445097772132262    0.4900677672288276 T T T Fe
   1.0164496564935712    0.3463527042702124    0.5239153904360310 T T T Fe
   0.3493393937783452    0.5140770089684538    0.4418359606907464 T T T Fe
   0.2838528081911153    0.5112108555429464    0.5384453477499030 T T T Fe
   0.2587906146905104    0.7817367263186991    0.2799124495937544 T T T Fe
   0.7536380674073123    0.7684765848241253    0.2741702512497247 T T T Fe
   0.7403560460247912    0.2772291041016385    0.2704152249052706 T T T Fe
   0.2529202783452685    0.2788986617801810    0.2730464224722603 T T T Fe
   0.7609040523508475    0.7720531833407840    0.1833912776821256 T T T Fe
   0.2401841515538108    0.2636027592675621    0.1834747493442205 T T T Fe
   0.7623642122211799    0.2547532918649761    0.1807984984258033 T T T Fe
   0.2606464019482832    0.7570108306274933    0.1804125964485958 T T T Fe
   0.7512200000000000    0.7497890000000003    0.0900045000000000 F F F Fe
   0.2525560000000000    0.2485840000000000    0.0899467000000000 F F F Fe
   0.2525570000000000    0.7519880000000000    0.0898348000000000 F F F Fe
   0.7515110000000000    0.2507570000000000    0.0898128000000000 F F F Fe
   0.7551410000000000    0.2486030000000000    0.9998840000000000 F F F Fe
   0.7559090000000001    0.7513010000000000    0.9998100000000000 F F F Fe
   0.2485380000000000    0.2456220000000000    0.9997749999999999 F F F Fe
   0.2515020000000000    0.7484870000000000    0.9996820000000000 F F F Fe
  -0.1425867129376744    0.3166964071165932    0.4102504696214193 T T T O
   0.1387093189153409    0.3042332399760594    0.3286524636852068 T T T O
   0.3075354331470010    0.7571219820255969    0.3302824877409548 T T T O
   0.7429059179039161    0.7813954358618936    0.3300289360159842 T T T O
   0.0704299537174818   -0.0085513923085652    0.3720828445389576 T T T O
   0.7344892280827885    0.0250901444709990    0.2719394838899375 T T T O
   0.7451390769802492    1.1672675350536188    0.3479969102158000 T T T O
   0.2251235124122576    0.5297769837762293    0.2732432008220762 T T T O
  -0.0005301811683478    0.2388567949104961    0.2654144188719283 T T T O
   0.0054773646584779    0.8123838918619103    0.2796859245125772 T T T O
   0.5015761226709483    0.7510548206922453    0.2699515893406145 T T T O
   0.4943880681398263    0.2932745263533970    0.2839678817584458 T T T O
   0.7811679404049157    0.5144053626857314    0.2830876043230108 T T T O
   0.2998309904933302    0.2851886879343168    0.2279516493302450 T T T O
   0.2651562928222368    0.0326922469710582    0.2782871341156570 T T T O
   0.6947240755091595    0.3154923581604593    0.2219136553729076 T T T O
   0.7759123825849904    0.7231509181558520    0.2272487667662576 T T T O
   0.2181403004386604    0.0011151393398933    0.1951909425019920 T T T O
   0.5575113584856697   -0.0411369685798196    0.3930427158983477 T T T O
   0.5073318184351733    0.8006602203203786    0.1885639630360882 T T T O
   0.3341347469063588    0.5057614763280126    0.1819545938295743 T T T O
   1.0182837914770557    0.7038243409284040    0.1826471947708274 T T T O
   0.8232672681845096    0.0100100943323990    0.1853248776868082 T T T O
   1.0074803943277599    0.3276465320402163    0.1793520777334641 T T T O
   0.7136544304086001    0.2559624521046462    0.1379716979691646 T T T O
   0.0192224800063193    0.6122179479865365    0.3690830478772188 T T T O
   0.7506299142068494    0.7335394492035268    0.1389188130321304 T T T O
   0.2768445810740939    0.2089815497035214    0.1393755797348644 T T T O
   0.2544485807426212    0.7897749877403906    0.1364124021932610 T T T O
   0.0016510300000000    0.2052720000000000    0.0929924000000000 F F F O
   0.0017685700000000    0.7946140000000000    0.0917109000000000 F F F O
   0.2012500000000000    0.5014790000000002    0.0916148000000000 F F F O
   0.6998410000000000    0.0005042950000000    0.0913373000000000 F F F O
   0.8059610000000003    0.5002500000000000    0.0898055000000000 F F F O
   0.5018950000000002    0.7052690000000000    0.0890508000000000 F F F O
   0.3058880000000000    0.9991640000000003    0.0875469000000000 F F F O
   0.5019439999999999    0.2962430000000000    0.0871561000000000 F F F O
   0.3637403147251643    0.4548372079565800    0.3900469169410715 T T T O
   0.7476850000000000    0.7474010000000000    0.0455491000000000 F F F O
   0.7586450000000002    0.2539360000000000    0.0450867000000000 F F F O
   0.2426100000000000    0.2623140000000000    0.0442249000000000 F F F O
   0.2559420000000000    0.7382330000000000    0.0436785000000000 F F F O
   0.4986800000000002    0.2067080000000000    0.0007810810000000 F F F O
   0.0072915400000000    0.6963300000000000    0.0002777920000000 F F F O
   0.3038860000000000    0.5116130000000000    0.0000336940000000 F F F O
   0.7021790000000000    0.5024940000000000    0.0000071380000000 F F F O
   0.7871650000000002    0.9982330000000000    0.9995859999999999 F F F O
   0.2124990000000000    0.9861950000000000    0.9993000000000000 F F F O
   0.4969130000000000    0.7976530000000002    0.9991769999999999 F F F O
   0.0034930000000000    0.3021760000000000    0.9982270000000000 F F F O
   0.5181945384371339    0.0141491636538796    0.3147658707098149 T T T Sr
   0.5162429528001664    0.5409155035506505    0.3156051830662013 T T T Sr
   0.4956039508236195    0.0235196483414513    0.2310215528237173 T T T Sr
   0.9969929229588295    0.4967567157091886    0.2289908625519241 T T T Sr
   0.4973525453100734    0.4984629869418468    0.1312464262175905 T T T Sr
   0.0025580300000000    0.9991380000000000    0.0452371000000000 F F F Sr
