Sr6 La14 Fe67 O50
1.0
   7.9023977777800001    0.0000000000000000    0.0000000000000000
   0.0000000000000000    7.9023977777800001    0.0000000000000000
   0.0000000000000000    0.0000000000000000   43.3643938769000030
La Fe O Sr
14 36 50 6
Selective dynamics
direct
   0.9950751994336930    1.0560544916255945    0.3136039721802018 T T T La
   0.9854243110137271    0.5431425738200667    0.3146015273219799 T T T La
   0.9913962122515032   -0.0052989843982979    0.2302202316120652 T T T La
   0.4999202503942495    0.5236204502909111    0.2310462470782527 T T T La
   0.0136635055004684    0.0015406203535336    0.1328579193191295 T T T La
   0.5010557153771205   -0.0042961451637940    0.1313433326197725 T T T La
   0.9948168763708910    0.5167775307314314    0.1322294722221242 T T T La
   0.0062887400000000    0.4975760000000001    0.0449424000000000 F F F La
   0.5049640000000000    0.9993850000000001    0.0448529000000000 F F F La
   0.5031679999999999    0.5002950000000000    0.0447939000000000 F F F La
   0.6222376949284304    0.2272821532229018    0.3946606282870724 T T T La
   0.2835642393726667    0.7735858400328937    0.3795738549777766 T T T La
   0.8193511870184784    0.8327275790984937    0.3768147232767706 T T T La
   0.1133467351010383    0.3086994236987786    0.3825355452694784 T T T La
   0.8469780573190053    0.7236016376252289    0.4723304234387197 T T T Fe
   0.1196890719766122    0.8725438618940299    0.4655117818205427 T T T Fe
   0.5098669374876880    0.6271291184811916    0.4895630251590073 T T T Fe
   0.7928181923169185    0.5985788208116277    0.5218036212741766 T T T Fe
   0.4986664067903694    0.1688537711472770    0.4922197913650065 T T T Fe
   0.6676754064999519   -0.0913157536906267    0.5024302296112989 T T T Fe
   0.3492640213406706    0.8993104010477710    0.5013473974656010 T T T Fe
   0.1302444054089056    0.1256713384886951    0.4982298806483312 T T T Fe
   1.1203989695003205    0.6374966660814262    0.4993850581719114 T T T Fe
  -0.0252927447434502    0.8867210542467592    0.5159035968987886 T T T Fe
   0.5154915524086259    0.7627330560748183    0.5415884433386804 T T T Fe
   0.9659242482134137    0.3727364033350613    0.4604523448959088 T T T Fe
  -0.4321547552961386    0.3950956594634479    0.5292198905656494 T T T Fe
   0.4825634003317513   -0.0968230493845669    0.4464431741533094 T T T Fe
   0.3073227816402159    0.2093771996346492    0.5394100128513452 T T T Fe
   0.8067438156114993    0.1841787702474575    0.5143336476544978 T T T Fe
   0.2915676054496475    0.3914135028223289    0.4924026009002158 T T T Fe
   1.0344283302691135    0.3822344863957085    0.5255710096868909 T T T Fe
   0.3713136443869399    0.4193309750205447    0.4408695122443768 T T T Fe
   0.3104771797498810    0.5500057932966995    0.5413310299656536 T T T Fe
   0.2552102100394336    0.7722859459616993    0.2827078468758477 T T T Fe
   0.7468466336725386    0.7586407018090325    0.2728175040710049 T T T Fe
   0.7353394722231582    0.2655173335065657    0.2703147127226382 T T T Fe
   0.2487421797393574    0.2728983405027873    0.2740360167066794 T T T Fe
   0.7613204994954876    0.7727731703908136    0.1825838067702691 T T T Fe
   0.2415196072641284    0.2641430017751593    0.1838996198028573 T T T Fe
   0.7640585537449258    0.2528730361140886    0.1805260313249993 T T T Fe
   0.2633561901619888    0.7577881141533371    0.1804759789679436 T T T Fe
   0.7512200000000000    0.7497890000000001    0.0900045000000000 F F F Fe
   0.2525560000000000    0.2485840000000000    0.0899467000000000 F F F Fe
   0.2525570000000000    0.7519880000000000    0.0898348000000000 F F F Fe
   0.7515110000000000    0.2507570000000000    0.0898128000000000 F F F Fe
   0.7551410000000000    0.2486030000000000    0.9998840000000000 F F F Fe
   0.7559090000000001    0.7513010000000000    0.9998100000000000 F F F Fe
   0.2485380000000000    0.2456220000000000    0.9997749999999999 F F F Fe
   0.2515020000000000    0.7484870000000000    0.9996820000000000 F F F Fe
  -0.1221181826000078    0.2961314664816279    0.4092396266738919 T T T O
   0.1534925999064647    0.2977560353990348    0.3273653496979690 T T T O
   0.3143901748025769    0.7614295812607946    0.3281600636342069 T T T O
   0.7221518106445780    0.7325907681614843    0.3337764247757157 T T T O
   0.0799854086885148   -0.0180623453654711    0.3670500711545043 T T T O
   0.7466910120022981    0.0129866591350285    0.2713879862583409 T T T O
   0.7449803278230425    1.1208275478960654    0.3496515856083457 T T T O
   0.2303679081989060    0.5258907347592016    0.2750724911512144 T T T O
  -0.0055095941674747    0.2497569346329798    0.2671239305985910 T T T O
   0.0015553215484667    0.7891193104175537    0.2835543408794711 T T T O
   0.4896879442869608    0.7622584128271697    0.2677983219001415 T T T O
   0.4905789165066628    0.2668377212359533    0.2846991214850728 T T T O
   0.7492316392153697    0.5084139735684984    0.2811351577917591 T T T O
   0.2929950337277147    0.2853317120271189    0.2288804797435495 T T T O
   0.2451727343668232    0.0199389923372417    0.2763651683205091 T T T O
   0.6910965286318967    0.3010921059990916    0.2219030067766528 T T T O
   0.7713691867342571    0.7160716721243494    0.2260367570628548 T T T O
   0.2177419995503275    0.0006682804538933    0.1959915619177671 T T T O
   0.5365033260446735   -0.0704682480394256    0.3939180176436029 T T T O
   0.5108478084614012    0.8190612391908308    0.1851798184373585 T T T O
   0.3417215298921563    0.5097644218550206    0.1836439883760033 T T T O
   1.0214313927597631    0.7027989827287200    0.1828193778950701 T T T O
   0.8344653132433869    0.0086077837523464    0.1843132933267412 T T T O
   1.0094460331656570    0.3288289115345094    0.1798458392129397 T T T O
   0.7148632167755773    0.2581442472042714    0.1378210074354983 T T T O
   0.0362058579450191    0.6009667897835115    0.3679367943862412 T T T O
   0.7544930742155153    0.7296825096004765    0.1384971726885565 T T T O
   0.2782592111947978    0.2112959421260768    0.1398784890438715 T T T O
   0.2533421297611741    0.7879559837146464    0.1363852077017564 T T T O
   0.0016510300000000    0.2052720000000000    0.0929924000000000 F F F O
   0.0017685700000000    0.7946140000000000    0.0917109000000000 F F F O
   0.2012500000000000    0.5014790000000001    0.0916148000000000 F F F O
   0.6998410000000000    0.0005042950000000    0.0913373000000000 F F F O
   0.8059610000000001    0.5002500000000000    0.0898055000000000 F F F O
   0.5018950000000001    0.7052690000000000    0.0890508000000000 F F F O
   0.3058880000000000    0.9991640000000002    0.0875469000000000 F F F O
   0.5019439999999999    0.2962430000000000    0.0871561000000000 F F F O
   0.3941858784968179    0.4213551762207877    0.3886569401166693 T T T O
   0.7476850000000000    0.7474010000000000    0.0455491000000000 F F F O
   0.7586450000000001    0.2539360000000000    0.0450867000000000 F F F O
   0.2426100000000000    0.2623140000000000    0.0442249000000000 F F F O
   0.2559420000000000    0.7382330000000000    0.0436785000000000 F F F O
   0.4986800000000001    0.2067080000000000    0.0007810810000000 F F F O
   0.0072915400000000    0.6963300000000000    0.0002777920000000 F F F O
   0.3038860000000000    0.5116130000000000    0.0000336940000000 F F F O
   0.7021790000000000    0.5024940000000000    0.0000071380000000 F F F O
   0.7871650000000001    0.9982330000000000    0.9995859999999999 F F F O
   0.2124990000000000    0.9861950000000000    0.9993000000000000 F F F O
   0.4969130000000000    0.7976530000000001    0.9991769999999999 F F F O
   0.0034930000000000    0.3021760000000000    0.9982270000000000 F F F O
   0.5267429424133102   -0.0045830815095267    0.3136766078907910 T T T Sr
   0.4970144964529993    0.5127404068073863    0.3182001431722177 T T T Sr
   0.4913966435497508    0.0221164174640569    0.2303434665577987 T T T Sr
   1.0000721265245318    0.4961061104484242    0.2284506267208992 T T T Sr
   0.4968112700375684    0.4986942580301697    0.1313592030294087 T T T Sr
   0.0025580300000000    0.9991380000000000    0.0452371000000000 F F F Sr
