LSF
   1.00000000000000
   7.9023977777800001    0.0000000000000000    0.0000000000000000
   0.0000000000000000    7.9023977777800001    0.0000000000000000
   0.0000000000000000    0.0000000000000000   43.3643938769000030
   La   Fe   O    Sr
    14    67    50    6
Selective dynamics
Direct
  0.992341 1.04839 0.320608 T T T
  0.958678 0.521039 0.314797 T T T
  1.0123 0.0117383 0.234431 T T T
  0.493432 0.50938 0.234601 T T T
  0.0191623 0.00287655 0.133563 T T T
  0.501087 -0.00342971 0.131792 T T T
  0.99761 0.522551 0.132711 T T T
  0.00628874 0.497576 0.0449424 F F F
  0.504964 0.999385 0.0448529 F F F
  0.503168 0.500295 0.0447939 F F F
  0.701307 0.196203 0.387529 T T T
  0.263925 0.821509 0.37884 T T T
  0.772665 0.721447 0.381478 T T T
  0.172685 0.331535 0.3806 T T T
  0.63343 -0.401591 0.57571 T T T
  0.45867 0.365347 0.584266 T T T
  0.837957 0.730012 0.472521 T T T
  0.141222 0.396222 0.577919 T T T
  0.109749 0.886379 0.464499 T T T
  0.21817 0.631448 0.662211 T T T
  0.502538 0.633588 0.490324 T T T
  0.993901 -0.759822 0.615621 T T T
  0.959729 0.875954 0.654575 T T T
  0.785322 0.610551 0.522617 T T T
  0.633238 0.903603 0.652693 T T T
  0.505511 0.631867 0.63282 T T T
  0.491478 0.171084 0.491452 T T T
  1.00065 0.397209 0.665212 T T T
  0.657983 -0.0840393 0.502069 T T T
  0.334786 0.902737 0.501714 T T T
  0.122792 0.13557 0.498011 T T T
  1.11326 0.6465 0.498323 T T T
  0.540468 0.395826 0.667828 T T T
  0.222933 0.895299 0.553042 T T T
  -0.0321171 0.895233 0.515612 T T T
  0.506736 0.776608 0.541627 T T T
  0.268107 1.11746 0.594495 T T T
  0.971256 0.381058 0.45905 T T T
  1.00167 0.119747 0.557677 T T T
  -0.440053 0.40282 0.528394 T T T
  0.288273 0.664242 0.594566 T T T
  1.00007 0.658109 0.562132 T T T
  0.78344 0.880713 0.55884 T T T
  0.514051 -0.101888 0.446574 T T T
  0.298309 0.223636 0.539264 T T T
  0.0189565 0.578247 0.620292 T T T
  0.731069 0.408629 0.621501 T T T
  0.0537724 0.903444 0.601953 T T T
  0.50983 0.888851 0.594779 T T T
  0.279984 0.377073 0.633308 T T T
  0.566116 0.0993651 0.551296 T T T
  1.31793 -0.105988 0.639611 T T T
  0.800598 0.193058 0.512409 T T T
  0.765093 0.0685362 0.603435 T T T
  0.289353 0.399599 0.490874 T T T
  0.439011 0.109549 0.678162 T T T
  0.781705 0.615515 0.663144 T T T
  0.803272 0.349273 0.565823 T T T
  0.148039 0.123314 0.657857 T T T
  1.02575 0.39417 0.525026 T T T
  0.780565 0.175709 0.660216 T T T
  0.418377 0.403727 0.440584 T T T
  0.508679 0.16405 0.626958 T T T
  0.301578 0.563106 0.540349 T T T
  0.246911 0.762452 0.28486 T T T
  0.739716 0.756692 0.272636 T T T
  0.730961 0.256491 0.27133 T T T
  0.235006 0.277375 0.277028 T T T
  0.784658 0.755263 0.612133 T T T
  0.760963 0.777305 0.18335 T T T
  0.238124 0.264349 0.18414 T T T
  0.7678 0.24001 0.181202 T T T
  0.264472 0.756373 0.180849 T T T
  0.75122 0.749789 0.0900045 F F F
  0.252556 0.248584 0.0899467 F F F
  0.252557 0.751988 0.0898348 F F F
  0.751511 0.250757 0.0898128 F F F
  0.755141 0.248603 0.999884 F F F
  0.755909 0.751301 0.99981 F F F
  0.248538 0.245622 0.999775 F F F
  0.251502 0.748487 0.999682 F F F
  -0.079032 0.326198 0.405522 T T T
  0.187152 0.331504 0.322656 T T T
  0.313258 0.747725 0.327612 T T T
  0.706149 0.711535 0.332683 T T T
  0.237154 0.0653044 0.35686 T T T
  0.741719 0.00627246 0.272111 T T T
  0.896107 0.968317 0.370184 T T T
  0.222627 0.530975 0.268802 T T T
  -0.0142857 0.249884 0.271313 T T T
  -0.0059058 0.784184 0.286922 T T T
  0.480456 0.765003 0.268089 T T T
  0.483323 0.264727 0.280952 T T T
  0.73776 0.506751 0.276723 T T T
  0.258289 0.265767 0.228822 T T T
  0.235977 0.0132225 0.276247 T T T
  0.687713 0.282555 0.221995 T T T
  0.746605 0.700964 0.224837 T T T
  0.21661 -0.00385505 0.194054 T T T
  0.536517 -0.0958382 0.393416 T T T
  0.513286 0.837122 0.181926 T T T
  0.347194 0.508692 0.185133 T T T
  1.02363 0.695308 0.183783 T T T
  0.846868 0.00478166 0.186071 T T T
  1.0045 0.327787 0.17836 T T T
  0.706214 0.249997 0.139098 T T T
  0.0464191 0.605491 0.366522 T T T
  0.759178 0.729284 0.139014 T T T
  0.276125 0.214096 0.13984 T T T
  0.24855 0.780115 0.136289 T T T
  0.00165103 0.205272 0.0929924 F F F
  0.00176857 0.794614 0.0917109 F F F
  0.20125 0.501479 0.0916148 F F F
  0.699841 0.000504295 0.0913373 F F F
  0.805961 0.50025 0.0898055 F F F
  0.501895 0.705269 0.0890508 F F F
  0.305888 0.999164 0.0875469 F F F
  0.501944 0.296243 0.0871561 F F F
  0.46241 0.406892 0.390449 T T T
  0.747685 0.747401 0.0455491 F F F
  0.758645 0.253936 0.0450867 F F F
  0.24261 0.262314 0.0442249 F F F
  0.255942 0.738233 0.0436785 F F F
  0.49868 0.206708 0.000781081 F F F
  0.00729154 0.69633 0.000277792 F F F
  0.303886 0.511613 3.3694e-05 F F F
  0.702179 0.502494 7.138e-06 F F F
  0.787165 0.998233 0.999586 F F F
  0.212499 0.986195 0.9993 F F F
  0.496913 0.797653 0.999177 F F F
  0.003493 0.302176 0.998227 F F F
  0.501358 -0.00255208 0.313935 T T T
  0.497982 0.489429 0.320509 T T T
  0.487336 0.0171451 0.23074 T T T
  0.988519 0.494079 0.228767 T T T
  0.49761 0.498893 0.13192 T T T
  0.00255803 0.999138 0.0452371 F F F
