Sr10 La10 Fe20 O66
1.0
   7.9023977777800001    0.0000000000000000    0.0000000000000000
   0.0000000000000000    7.9023977777800001    0.0000000000000000
   0.0000000000000000    0.0000000000000000   43.3643938769000030
La Fe O Sr
10 20 66 10
Selective dynamics
direct
   0.9947458167547195    0.9965766551856872    0.3158337167818749 T T T La
   0.9899128727853738    0.4991036820683389    0.3161544913666147 T T T La
   0.9980050173166836    0.0013989476886711    0.2278945034888837 T T T La
   0.4862463313930495    0.5012378273648025    0.2255970507310379 T T T La
   0.0073113117779030    0.0007015159276541    0.1364124193206934 T T T La
   0.5036545890011669    0.0011843002961150    0.1361013402723567 T T T La
   0.9966800015657429    0.5034439477677760    0.1347842024642172 T T T La
   0.0062887400000000    0.4975760000000001    0.0449424000000000 F F F La
   0.5049640000000000    0.9993850000000002    0.0448529000000000 F F F La
   0.5031679999999999    0.5002950000000000    0.0447939000000000 F F F La
   0.7445764361161700    0.2504993265705647    0.3603345642185114 T T T Fe
   0.2477383226283415    0.7493620716590570    0.3613114062406129 T T T Fe
   0.7462170078295121    0.7505637842960498    0.3614891514397172 T T T Fe
   0.2468112746082082    0.2495407063644620    0.3601800186232529 T T T Fe
   0.2466850852526310    0.7486571442690453    0.2712136107365566 T T T Fe
   0.7455199868130781    0.7489530641219527    0.2712253142293237 T T T Fe
   0.7452249933684771    0.2507771049640541    0.2709941025937221 T T T Fe
   0.2468863009940148    0.2504495598863983    0.2710206905148583 T T T Fe
   0.7480273369879487    0.7506672719765187    0.1809835022790608 T T T Fe
   0.2498877063747219    0.2511206871428716    0.1807414847893890 T T T Fe
   0.7480288183668065    0.2503962671256418    0.1808513234660612 T T T Fe
   0.2500663316444036    0.7497733747063007    0.1807299643416045 T T T Fe
   0.7512200000000000    0.7497890000000003    0.0900045000000000 F F F Fe
   0.2525560000000000    0.2485840000000000    0.0899467000000000 F F F Fe
   0.2525570000000000    0.7519880000000000    0.0898348000000000 F F F Fe
   0.7515110000000000    0.2507570000000000    0.0898128000000000 F F F Fe
   0.7551410000000000    0.2486030000000000    0.9998840000000000 F F F Fe
   0.7559090000000001    0.7513010000000000    0.9998100000000000 F F F Fe
   0.2485380000000000    0.2456220000000000    0.9997749999999999 F F F Fe
   0.2515020000000000    0.7484870000000000    0.9996820000000000 F F F Fe
   0.7436048335000097    0.2268932277621694    0.4022665885708690 T T T O
   0.2379015829170634    0.2512505962558444    0.4023111028727698 T T T O
   0.2520649377420557    0.7449613818956263    0.4040556346151793 T T T O
   0.7546971862166971    0.4999215870801443    0.3645639546672408 T T T O
   0.4958678924006301    0.2478022612037272    0.3604377936351643 T T T O
   0.2366282757120062    0.9995555931956205    0.3616262259679048 T T T O
   0.4972253632731904    0.7512237238266481    0.3592925718843668 T T T O
   0.9965019545600298    0.7478652261664368    0.3607378237314104 T T T O
   0.2396194202896510    0.4992695161402476    0.3567462449096113 T T T O
   0.9956815141730886    0.2514561822007664    0.3569468960854097 T T T O
   0.7565195959002822    0.0009375520962808    0.3545358181654250 T T T O
   0.2352113214297127    0.7675796577706805    0.3164521220818508 T T T O
   0.7614244977127773    0.7257369423057897    0.3167280016505286 T T T O
   0.7462888259342613    0.2778468232147540    0.3163001210398100 T T T O
   0.2495514295447079    0.2308650323379192    0.3160122412769734 T T T O
   0.7194552075738178    0.0000795275984771    0.2755853062672834 T T T O
   0.2071318490780465    0.4996099594727778    0.2754357032249576 T T T O
  -0.0034885431039929    0.2085916676639514    0.2736147471021032 T T T O
  -0.0032653789657048    0.7915555028370835    0.2714144713214449 T T T O
   0.4970854035224205    0.7107324625866847    0.2696602529115238 T T T O
   0.2705500628889223   -0.0005839489358590    0.2673115727104501 T T T O
   0.4970171581155533    0.2891560652909539    0.2672454944411246 T T T O
   0.7837268828723412    0.5001526063950794    0.2684436085406995 T T T O
   0.2320606491205829    0.2728667864786504    0.2258390436296233 T T T O
   0.2454193908903797    0.7247284528366732    0.2258485049750381 T T T O
   0.7718738096730074    0.2246030787893419    0.2257759919854448 T T T O
   0.7595947850308088    0.7756495496862218    0.2258506573033787 T T T O
   0.7067529271788271    0.5002552661634670    0.1852875289275324 T T T O
   0.1970251351523908    0.0002505363259948    0.1842720406675408 T T T O
   0.4986292494357322    0.2078918892255631    0.1826087123922178 T T T O
   0.7376119542413039    0.7784098925508780    0.4037566272643351 T T T O
   0.4986971134094279    0.7944863033041774    0.1807120640587383 T T T O
   0.2890097696234068    0.5000110900263548    0.1774818202939359 T T T O
   0.9993925801754058    0.7100844184794802    0.1771498720353891 T T T O
   0.7933731038254790    0.0003836752769499    0.1768428702133767 T T T O
   0.9991869646716276    0.2896857713537758    0.1750147777541897 T T T O
   0.7345585444559218    0.2583769646148718    0.1351857139791059 T T T O
   0.7467772524936330    0.7401846194064872    0.1352781649684352 T T T O
   0.2656880937564114    0.2199384039378970    0.1351957004748614 T T T O
   0.2545441415379028    0.7795583997501674    0.1352274650633970 T T T O
   0.0016510300000000    0.2052720000000000    0.0929924000000000 F F F O
   0.0017685700000000    0.7946140000000000    0.0917109000000000 F F F O
   0.2012500000000000    0.5014790000000002    0.0916148000000000 F F F O
   0.6998410000000000    0.0005042950000000    0.0913373000000000 F F F O
   0.8059610000000003    0.5002500000000000    0.0898055000000000 F F F O
   0.5018950000000002    0.7052690000000000    0.0890508000000000 F F F O
   0.3058880000000000    0.9991640000000003    0.0875469000000000 F F F O
   0.5019439999999999    0.2962430000000000    0.0871561000000000 F F F O
   0.7476850000000000    0.7474010000000000    0.0455491000000000 F F F O
   0.7586450000000002    0.2539360000000000    0.0450867000000000 F F F O
   0.2426100000000000    0.2623140000000000    0.0442249000000000 F F F O
   0.2559420000000000    0.7382330000000000    0.0436785000000000 F F F O
   0.4986800000000002    0.2067080000000000    0.0007810810000000 F F F O
   0.0072915400000000    0.6963300000000000    0.0002777920000000 F F F O
   0.3038860000000000    0.5116130000000000    0.0000336940000000 F F F O
   0.7021790000000000    0.5024940000000000    0.0000071380000000 F F F O
   0.7871650000000002    0.9982330000000000    0.9995859999999999 F F F O
   0.2124990000000000    0.9861950000000000    0.9993000000000000 F F F O
   0.4969130000000000    0.7976530000000002    0.9991769999999999 F F F O
   0.0034930000000000    0.3021760000000000    0.9982270000000000 F F F O
   0.3273471126789237    0.2989844355064777    0.4577869988227610 T T T O
   0.3067003639566726    0.4660136576898019    0.4550619882535342 T T T O
   0.8285379980580602    0.3120292221987610    0.4591953458872054 T T T O
   0.9805383969448493    0.2475924403857431    0.4525247719968089 T T T O
   0.8124025671983919    0.4789497165693178    0.4539751575770810 T T T O
   0.4832552938534647    0.2403993802821356    0.4513971201603821 T T T O
   0.4894179078934695   -0.0033219856154851    0.3162684810704895 T T T Sr
   0.4931989948553827    0.4989737264997137    0.3157151234290989 T T T Sr
   0.5044848701073232   -0.0005456879077721    0.2274751547064657 T T T Sr
   0.9947877750642244    0.5010477518038018    0.2247909958878030 T T T Sr
   0.5051703622575581    0.4992944450721876    0.1350000917906721 T T T Sr
   0.0025580300000000    0.9991380000000000    0.0452371000000000 F F F Sr
  -0.0079337234789978    0.0101757720996320    0.4017832562214519 T T T Sr
   0.0162288479202111    0.4965061330789209    0.4034136202388949 T T T Sr
   0.5111843262587094    0.4971324295334050    0.4038254961194089 T T T Sr
   0.4930255917327686    1.0077072675825491    0.4019460277397021 T T T Sr
