Sr6 La14 Fe20 O57
1.0
   7.9023977777800001    0.0000000000000000    0.0000000000000000
   0.0000000000000000    7.9023977777800001    0.0000000000000000
   0.0000000000000000    0.0000000000000000   43.3643938769000030
La Fe O Sr
14 20 57 6
Selective dynamics
direct
   0.0013893522975920    0.9835829427269382    0.3143731308261807 T T T La
   0.9973527383268795    0.5085033682908072    0.3169963594927771 T T T La
   0.9962451053225976   -0.0433608873798578    0.2265863695542102 T T T La
   0.4984614371084031    0.4971590180065721    0.2188448395637003 T T T La
  -0.0025210903459963    0.0041346051309011    0.1345805124839279 T T T La
   0.4989398415094176   -0.0001682437809628    0.1338133847227558 T T T La
   0.9988138318039956    0.5108075849067530    0.1346526877434071 T T T La
   0.0062887400000000    0.4975760000000001    0.0449424000000000 F F F La
   0.5049640000000000    0.9993850000000004    0.0448529000000000 F F F La
   0.5031679999999999    0.5002950000000000    0.0447939000000000 F F F La
   1.0020147656883591    0.5603331163763423    0.4168422289960946 T T T La
   0.5486346348038175    0.0161082513798702    0.4115868545975638 T T T La
   0.5255714199383723    0.5232495668861827    0.4098746478669070 T T T La
   1.0028315936571686    1.0807964184294152    0.4058203729503683 T T T La
   0.7538495878144045    0.2749838142238097    0.3680985872947736 T T T Fe
   0.2601313116504365    0.7851174784167833    0.3713446730201083 T T T Fe
   0.7613985147902117    0.7675003938826512    0.3690672842737052 T T T Fe
   0.2529721866144839    0.2681593182333965    0.3697335438538715 T T T Fe
   0.2568486584545397    0.7364262848314473    0.2739328381464328 T T T Fe
   0.7470585749451598    0.7366223005138689    0.2745833982735013 T T T Fe
   0.7427902546174586    0.2466711162052651    0.2727311525581232 T T T Fe
   0.2579916973640733    0.2487460840440110    0.2729820409674596 T T T Fe
   0.7489538432410916    0.7476553651595168    0.1813996809997460 T T T Fe
   0.2493622371730227    0.2455088226638318    0.1813345260549077 T T T Fe
   0.7511538744807414    0.2459559866521064    0.1814167119621002 T T T Fe
   0.2519835175283530    0.7486691524256773    0.1810924235420769 T T T Fe
   0.7512200000000000    0.7497890000000005    0.0900045000000000 F F F Fe
   0.2525560000000000    0.2485840000000000    0.0899467000000000 F F F Fe
   0.2525570000000000    0.7519880000000000    0.0898348000000000 F F F Fe
   0.7515110000000000    0.2507570000000000    0.0898128000000000 F F F Fe
   0.7551410000000000    0.2486030000000000    0.9998840000000000 F F F Fe
   0.7559090000000001    0.7513010000000000    0.9998089999999997 F F F Fe
   0.2485380000000000    0.2456220000000000    0.9997749999999999 F F F Fe
   0.2515020000000000    0.7484870000000000    0.9996820000000000 F F F Fe
   0.2722344044161378    0.6793564093702906    0.4137038134170980 T T T O
   0.8212649354525177    0.5164110923702786    0.3745354898082314 T T T O
   1.3004484184594445    0.0189016571674951    0.3832873370942707 T T T O
   0.5071048148485152    0.7230754391474179    0.3675234451015882 T T T O
   0.1654421512640422    0.3231554369884458    0.4143797786956906 T T T O
   0.2252984108986400    0.7684081560741314    0.3276339460375624 T T T O
   0.4910817339161782    0.3345280959694563    0.3693531876205935 T T T O
   0.7850579574954480    0.7603478871161858    0.3242975555992240 T T T O
   0.7117249363006356    0.0224262326984443    0.3675973409323045 T T T O
   0.0162142857869021    0.2162068929182300    0.3556525358398620 T T T O
   0.7688490216442735   -0.0025132296492195    0.2766371885148868 T T T O
   0.2487957230583690    0.4880107055791255    0.2878447539926256 T T T O
   0.0008924759711987    0.2502249828941535    0.2863097355433218 T T T O
   0.0031629640100069    0.7325521352424184    0.2752844685351334 T T T O
   0.5011447556492695    0.7494696260826443    0.2798599465835235 T T T O
   0.2318584979572917   -0.0030331169659938    0.2751307787829077 T T T O
   0.5000993110427662    0.2327698266755698    0.2881040859322826 T T T O
   0.7529969110061886    0.4858572197567049    0.2862430030082505 T T T O
   0.2585567597050222    0.2881770074188452    0.2303754399868687 T T T O
   0.2620367624941943    0.7144107646840988    0.2297328789032999 T T T O
   0.7470743092913511    0.2763719105997259    0.2300069221149473 T T T O
   0.7441954265628875    0.7245677959539235    0.2298451213843086 T T T O
   0.7122154214888327    0.4980996607623377    0.1796947461983101 T T T O
   0.2078632695033940   -0.0008468990488232    0.1906488027264119 T T T O
   0.5002394861916357    0.2121192249775319    0.1851915747325629 T T T O
   0.5009499961096130    0.7875566086106227    0.1820653602308582 T T T O
   0.2896536073072286    0.4983767549277929    0.1775163256925466 T T T O
   1.0016572247452575    0.7148074562435442    0.1840281252118034 T T T O
   0.7972611455809731   -0.0015932285193309    0.1875358202380205 T T T O
   1.0014483710901565    0.2911393117877381    0.1775368462428719 T T T O
   0.7363196124531275    0.2282924732192602    0.1364191972117554 T T T O
   0.7639402686360850    0.7621956509911231    0.1365607557815744 T T T O
   0.2651412785682173    0.2107709919547128    0.1363472896871498 T T T O
   0.2413565545880464    0.7830008107608489    0.1364700721016161 T T T O
   0.0016510300000000    0.2052720000000000    0.0929924000000000 F F F O
   0.0083455644654839    0.8111824471684514    0.3799845790292193 T T T O
   0.0017685700000000    0.7946140000000000    0.0917109000000000 F F F O
   0.2012500000000000    0.5014790000000005    0.0916148000000000 F F F O
   0.6998410000000000    0.0005042950000000    0.0913373000000000 F F F O
   0.8059610000000005    0.5002500000000000    0.0898055000000000 F F F O
   0.5018950000000003    0.7052690000000000    0.0890508000000000 F F F O
   0.3058880000000000    0.9991640000000005    0.0875469000000000 F F F O
   0.5019439999999999    0.2962430000000000    0.0871561000000000 F F F O
   0.7476850000000000    0.7474010000000000    0.0455491000000000 F F F O
   0.7586450000000005    0.2539360000000000    0.0450867000000000 F F F O
   0.2426100000000000    0.2623140000000000    0.0442249000000000 F F F O
   0.2559420000000000    0.7382330000000000    0.0436785000000000 F F F O
   0.4986800000000002    0.2067080000000000    0.0007810810000000 F F F O
   0.0072915400000000    0.6963300000000000    0.0002777920000000 F F F O
   0.3038860000000000    0.5116130000000000    0.0000336940000000 F F F O
   0.7021790000000000    0.5024940000000000    0.0000071380000000 F F F O
   0.7461349989141804    0.2451403818578629    0.4184578001400109 T T T O
   0.7871650000000004    0.9982330000000000    0.9995859999999999 F F F O
   0.2124990000000000    0.9861950000000000    0.9993000000000000 F F F O
   0.4969130000000000    0.7976530000000004    0.9991769999999999 F F F O
   0.0034930000000000    0.3021760000000000    0.9982270000000000 F F F O
   0.7159186182218403    0.7670415380989429    0.4183920231044144 T T T O
   0.5101505015422496    0.9717850873062978    0.3186152916286607 T T T Sr
   0.5030416703037770    0.5160422630442772    0.3195704071750780 T T T Sr
   0.4940059790554662   -0.0112966602781459    0.2258669055988802 T T T Sr
   0.9989488719343101    0.4899612256921244    0.2243825668760020 T T T Sr
   0.5037479465037610    0.4925196808694316    0.1332499408112670 T T T Sr
   0.0025580300000000    0.9991380000000000    0.0452371000000000 F F F Sr
