Sr18 La10 Fe20 O68
1.0
   7.9023977777800001    0.0000000000000000    0.0000000000000000
   0.0000000000000000    7.9023977777800001    0.0000000000000000
   0.0000000000000000    0.0000000000000000   43.3643938769000030
La Fe O Sr
10 20 68 18
Selective dynamics
direct
  -0.0073141157798749    0.4986610961149988    0.4237802464169975 T T T La
   0.4949917131747465    0.5002472278491759    0.4241061220922840 T T T La
   0.7391814508396422    0.7486180287582854    0.3611763395638501 T T T La
   0.2456817266425146    0.7451718548025836    0.3602598346475845 T T T La
   0.0043140641531421   -0.0007959909881270    0.1353375292048362 T T T La
   0.4990512242536644    0.0001713207057117    0.1349931906533032 T T T La
   0.9928134755232704    0.5009105276765367    0.1346927556943905 T T T La
   0.0062887400000000    0.4975760000000001    0.0449424000000000 F F F La
   0.5049640000000000    0.9993850000000006    0.0448529000000000 F F F La
   0.5031679999999999    0.5002950000000000    0.0447939000000000 F F F La
   0.7445971924628894    0.7514850369433175    0.4671413128607212 T T T Fe
   0.2440389390975359    0.2511683895044821    0.4656515316021047 T T T Fe
   0.7447446030129035    0.2510547517607789    0.4658352029929790 T T T Fe
   0.2439841037887520    0.7517116579927968    0.4672675171206523 T T T Fe
   0.4932061195929471   -0.0006494343634336    0.3194983520200057 F F F Fe
  -0.0069407047793914    0.5002362130384906    0.3198202073293814 F F F Fe
   0.4937268009992414    0.5006831997387574    0.3194706967054944 F F F Fe
  -0.0064901186402752    0.0000530587941241    0.3198964045989448 F F F Fe
   0.7477334956335174    0.7504541390624856    0.1795928993781263 T T T Fe
   0.2485845033215953    0.2509460457343641    0.1793278954317966 T T T Fe
   0.7471857304973704    0.2504787939014380    0.1794182984111082 T T T Fe
   0.2485654381088788    0.7494576784677466    0.1793372315043141 T T T Fe
   0.7512200000000000    0.7497890000000007    0.0900045000000000 F F F Fe
   0.2525560000000000    0.2485840000000000    0.0899467000000000 F F F Fe
   0.2525570000000000    0.7519880000000000    0.0898348000000000 F F F Fe
   0.7515110000000000    0.2507570000000000    0.0898128000000000 F F F Fe
   0.7551410000000000    0.2486030000000000    0.9998840000000000 F F F Fe
   0.7559090000000001    0.7513010000000000    0.9998100000000000 F F F Fe
   0.2485380000000000    0.2456220000000000    0.9997749999999999 F F F Fe
   0.2515020000000000    0.7484870000000000    0.9996820000000000 F F F Fe
   0.7437210181661897    0.2514211604625926    0.5105445757808482 T T T O
   0.7457213497408919    0.7511798641928629    0.5114724302923950 T T T O
   0.2452354948959881    0.2543333718785054    0.5103781083432872 T T T O
   0.2429017784962234    0.7485744332751348    0.5115659778797369 T T T O
   0.7454096834967344    0.5018380857499284    0.4635266010542112 T T T O
   0.2441193352360089    0.0005715480149845    0.4633957318870169 T T T O
   0.4944526334265710    0.2572084813580137    0.4632719386940822 T T T O
   0.4940075843333512    0.7438515745905040    0.4627015301883722 T T T O
   0.2432723220168907    0.5026203971277757    0.4626241829291114 T T T O
   0.9945683361682549    0.7445540690512509    0.4617930259389189 T T T O
   0.7444763998412981    0.0007238847180903    0.4628664277998107 T T T O
   0.9943650987318541    0.2566393237167875    0.4636229193089279 T T T O
  -0.0085084581987660    0.2494512355381352    0.3197145636776128 F F F O
  -0.0060068077819185    0.7512750676828847    0.3100115868476128 F F F O
   0.2431148409509881    0.4999538356701590    0.3199967545049779 F F F O
   0.4910734262941471    0.7489420389141044    0.3193035756520252 F F F O
   0.4941526012523025    0.2516056213375037    0.3199519529251890 F F F O
   0.2449613782258766    0.0009275030575548    0.3195016335694582 F F F O
   0.7431795563347017    0.5017319329620474    0.3194774371035722 F F F O
   0.7411937970984883   -0.0006322670782960    0.3101724430554189 F F F O
   0.7484721425904295    0.2741457006678467    0.4152798053139132 T T T O
   0.7410267214550842    0.7292096134732649    0.4134870851070925 T T T O
   0.2408230056916523    0.2683380314297975    0.4153263483904579 T T T O
   0.2475090878646746    0.7390378094922599    0.4124786678198479 T T T O
   0.2432383688711226    0.2645861991216601    0.2230760806926963 T T T O
   0.2440392353255842    0.7357173205401745    0.2230694765807756 T T T O
   0.7507094466370935    0.2383359069335859    0.2231771256755428 T T T O
   0.7512739974264592    0.7640494984438189    0.2232978618765009 T T T O
   0.7416724964092266    0.5004412862983943    0.1788791599299752 T T T O
   0.2313527209294786    0.0005018138880793    0.1798351751511957 T T T O
   0.4980399929137725    0.2330309948777953    0.1778976849981235 T T T O
   0.4983939395272501    0.7677366470985784    0.1771481047769344 T T T O
   0.2535137225893178    0.5000551479482135    0.1732850280077663 T T T O
   0.9986672001995865    0.7380873196863114    0.1751960989881992 T T T O
   0.7626384999825790    0.0007141188227007    0.1740030996575154 T T T O
   0.9984222213788204    0.2621132614469223    0.1745227951250102 T T T O
   0.7415641767726123    0.2587230509249113    0.1337015827490650 T T T O
   0.7500722900859438    0.7426557201248887    0.1337689681557627 T T T O
   0.2608424503934044    0.2225588041719257    0.1337748654109004 T T T O
   0.2535656431936733    0.7784218239188625    0.1338030198799305 T T T O
   0.0016510300000000    0.2052720000000000    0.0929924000000000 F F F O
   0.0017685700000000    0.7946140000000000    0.0917109000000000 F F F O
   0.2012500000000000    0.5014790000000006    0.0916148000000000 F F F O
   0.6998410000000000    0.0005042950000000    0.0913373000000000 F F F O
   0.8059610000000007    0.5002500000000000    0.0898055000000000 F F F O
   0.5018950000000003    0.7052690000000000    0.0890508000000000 F F F O
   0.3058880000000000    0.9991640000000007    0.0875469000000000 F F F O
   0.5019439999999999    0.2962430000000000    0.0871561000000000 F F F O
   0.7476850000000000    0.7474010000000000    0.0455491000000000 F F F O
   0.7586450000000007    0.2539360000000000    0.0450867000000000 F F F O
   0.2426100000000000    0.2623140000000000    0.0442249000000000 F F F O
   0.2559420000000000    0.7382330000000000    0.0436785000000000 F F F O
   0.4986800000000002    0.2067080000000000    0.0007810810000000 F F F O
   0.0072915400000000    0.6963300000000000    0.0002777920000000 F F F O
   0.3038860000000000    0.5116130000000000    0.0000336940000000 F F F O
   0.7021790000000000    0.5024940000000000    0.0000071380000000 F F F O
   0.7871650000000006    0.9982330000000000    0.9995859999999999 F F F O
   0.2124990000000000    0.9861950000000000    0.9993000000000000 F F F O
   0.4969130000000000    0.7976530000000004    0.9991769999999999 F F F O
   0.0034930000000000    0.3021760000000000    0.9982270000000000 F F F O
  -0.0239357287240904   -0.0327470372275925    0.3652588201527880 T T T O
   0.9968341312746837    0.5345360826818456    0.3673525699797356 T T T O
   0.5135215661485908    0.9831889528880872    0.3663785429514000 T T T O
   0.4905286590781516    0.5204859141429725    0.3688807075061956 T T T O
   0.0130969293517273    0.0185677759229908    0.2735713790569375 T T T O
   0.9910864572397857    0.4845983987428983    0.2734087276205691 T T T O
   0.4753020682051370    0.9994466831448109    0.2733986358360434 T T T O
   0.4948979177162312    0.5004924690978590    0.2733220200395652 T T T O
   0.9932939451614410    0.0016267311974960    0.2190423922636976 T T T Sr
   0.4916449078590764    0.4986290657144472    0.2177330965688568 T T T Sr
   0.7358497037155337    0.7409680021225181    0.2776705988278668 T T T Sr
   0.7457619744635723    0.2569527067023010    0.2781774168509891 T T T Sr
   1.2435884581720100    0.2518965143766392    0.2786784022711817 T T T Sr
   0.2495545218375915    0.7514352168361221    0.2778828340492218 T T T Sr
   0.4935626873494192   -0.0010517800919991    0.4238639732871709 T T T Sr
   0.4968377640027878    0.0007059837184250    0.2187416794310796 T T T Sr
   0.9993806066531840    0.4990787132747198    0.2183332313553638 T T T Sr
   0.5021268857430107    0.4989311979176876    0.1343954777427999 T T T Sr
   0.0025580300000000    0.9991380000000000    0.0452371000000000 F F F Sr
   0.7390980287834753    0.2463921013017358    0.3591236377338642 T T T Sr
   1.2479225188862120    0.2537853170188346    0.3591114338700696 T T T Sr
   0.9945583032483806    1.0001814616471374    0.4235009687544164 T T T Sr
  -0.0051930943154987    0.4995662821164076    0.5063577429674458 T T T Sr
   0.4949761656382028    0.0043894881178806    0.5056242783856937 T T T Sr
   0.9939434326941810    1.0039420405660637    0.5055625640352374 T T T Sr
   0.4942604019261823    0.4990586680620132    0.5064581508242016 T T T Sr
