Sr18 La10 Fe20 O66
1.0
   7.9023977777800001    0.0000000000000000    0.0000000000000000
   0.0000000000000000    7.9023977777800001    0.0000000000000000
   0.0000000000000000    0.0000000000000000   43.3643938769000030
La Fe O Sr
10 20 66 18
Selective dynamics
direct
   0.9842506351057357    0.9953811286276800    0.3149030660972219 T T T La
   0.9811560911567911    0.4900535415909398    0.3152468210829303 T T T La
   0.9853007858645548   -0.0055220557539630    0.2248133566863268 T T T La
   0.4914323311960904    0.5080501478187265    0.2247464621163191 T T T La
   0.0080353808494186    0.0034511840848540    0.1357402008483002 T T T La
   0.5030814856843115    0.0029717846047896    0.1355431049867385 T T T La
   0.9964165485568854    0.5108883069931386    0.1343991028849548 T T T La
   0.0062887400000000    0.4975760000000001    0.0449424000000000 F F F La
   0.5049640000000000    0.9993850000000002    0.0448529000000000 F F F La
   0.5031679999999999    0.5002950000000000    0.0447939000000000 F F F La
   0.7433207811428022    0.2504276847486208    0.3622868066812655 T T T Fe
   0.2485304084211464    0.7505442516858014    0.3627335506955779 T T T Fe
   0.7322037555692730    0.7504532873884014    0.3636731691479027 T T T Fe
   0.2389072938200065    0.2490399523553593    0.3665123528001611 T T T Fe
   0.2446067475860055    0.7487805884230831    0.2737743776372566 T T T Fe
   0.7457460836634179    0.7507226849886336    0.2716379012872897 T T T Fe
   0.7451953559707678    0.2521719774466538    0.2710712315242406 T T T Fe
   0.2466102388050640    0.2521020527896984    0.2685049537608719 T T T Fe
   0.7445507338156830    0.7510919431142299    0.1807078258453196 T T T Fe
   0.2495659687767244    0.2515566746888903    0.1803790264428327 T T T Fe
   0.7473482071760100    0.2510588568778956    0.1806902357219619 T T T Fe
   0.2512017787874181    0.7507121549408131    0.1811937179608676 T T T Fe
   0.7512200000000000    0.7497890000000003    0.0900045000000000 F F F Fe
   0.2525560000000000    0.2485840000000000    0.0899467000000000 F F F Fe
   0.2525570000000000    0.7519880000000000    0.0898348000000000 F F F Fe
   0.7515110000000000    0.2507570000000000    0.0898128000000000 F F F Fe
   0.7551410000000000    0.2486030000000000    0.9998840000000000 F F F Fe
   0.7559090000000001    0.7513010000000000    0.9998100000000000 F F F Fe
   0.2485380000000000    0.2456220000000000    0.9997749999999999 F F F Fe
   0.2515020000000000    0.7484870000000000    0.9996820000000000 F F F Fe
   0.7411145542910115    0.2407858165945328    0.4082052517462454 T T T O
   0.7680642449144310    0.7608299977460125    0.4076224452333091 T T T O
   0.2371784801802379    0.2521877670677115    0.4103215963050613 T T T O
   0.2021689460588567    0.7464372528398724    0.4062768027272058 T T T O
   0.2405696125561105    0.4973827726439862    0.3600960704371610 T T T O
   0.2186709311936637    1.0022161533708218    0.3604108962688495 T T T O
   0.4904748991965777    0.7613770303149100    0.3613794611787087 T T T O
   0.7699438588833443   -0.0041666714551729    0.3597825558968409 T T T O
   0.1732353053327407    0.7507509926307593    0.3206170949606713 T T T O
   0.7889450740115596    0.7373725131125862    0.3192441070076718 T T T O
   0.7297358355725817    0.2692082803289463    0.3165226196994360 T T T O
   0.4843793352326591    0.2392733027799591    0.3606543022329370 T T T O
   0.7301525206357340    0.0018740220873152    0.2760220544814915 T T T O
   0.2263235196654819    0.4896992389282468    0.2812270702644546 T T T O
   0.0056092387689750    0.2287040120654955    0.2797590923360088 T T T O
  -0.0001603722694790    0.7903480164617007    0.2677106421302480 T T T O
   0.4953778155058618    0.7271900603989164    0.2772828842939368 T T T O
   0.2725572799981384    0.0118962637920374    0.2781160348672966 T T T O
   0.4949483648271128    0.2865961297717038    0.2663689077739618 T T T O
   0.7802726574398301    0.5035023670478297    0.2696766365243871 T T T O
   0.2126421814754690    0.2660926210538707    0.2258829101302644 T T T O
   0.2661148387580175    0.7283927040145486    0.2282686732458379 T T T O
   0.7864861280652115    0.2271945301334715    0.2265404015238913 T T T O
   0.7356483313865263    0.7719198214964994    0.2264131086224442 T T T O
   0.7074111430234370    0.5002351890509998    0.1857907088486762 T T T O
   0.1977033293630450   -0.0000421222047532    0.1849367427100060 T T T O
   0.4986061992986076    0.2098425550257120    0.1853567048442055 T T T O
   0.4976943444016987    0.7979468998676438    0.1799021521009058 T T T O
   0.2931179430242580    0.5008636894092338    0.1791319823854184 T T T O
   0.9994567432733491    0.7135566515021036    0.1804353863832430 T T T O
   0.7972144761401745    0.0004126259747450    0.1777046319718724 T T T O
   0.9992226104904258    0.2922776269223937    0.1736356154815928 T T T O
   0.7272873959995079    0.2550248215050248    0.1354625713479501 T T T O
   0.7518909521442467    0.7376214417067753    0.1355749838784306 T T T O
   0.2709721771013178    0.2183482561572152    0.1354601149123465 T T T O
   0.2477017814325718    0.7766822441329457    0.1355176644781870 T T T O
   0.0016510300000000    0.2052720000000000    0.0929924000000000 F F F O
   0.0017685700000000    0.7946140000000000    0.0917109000000000 F F F O
   0.2012500000000000    0.5014790000000002    0.0916148000000000 F F F O
   0.6998410000000000    0.0005042950000000    0.0913373000000000 F F F O
   0.8059610000000003    0.5002500000000000    0.0898055000000000 F F F O
   0.5018950000000002    0.7052690000000000    0.0890508000000000 F F F O
   0.3058880000000000    0.9991640000000003    0.0875469000000000 F F F O
   0.5019439999999999    0.2962430000000000    0.0871561000000000 F F F O
   0.7476850000000000    0.7474010000000000    0.0455491000000000 F F F O
   0.7586450000000002    0.2539360000000000    0.0450867000000000 F F F O
   0.2426100000000000    0.2623140000000000    0.0442249000000000 F F F O
  -0.0009127064336432    0.2599045470607074    0.3564384482170940 T T T O
   0.2559420000000000    0.7382330000000000    0.0436785000000000 F F F O
   0.4986800000000002    0.2067080000000000    0.0007810810000000 F F F O
   0.0072915400000000    0.6963300000000000    0.0002777920000000 F F F O
   0.7518809334523471    0.5048965247747332    0.3647593844913150 T T T O
   0.3038860000000000    0.5116130000000000    0.0000336940000000 F F F O
   0.7021790000000000    0.5024940000000000    0.0000071380000000 F F F O
   0.7871650000000002    0.9982330000000000    0.9995859999999999 F F F O
   0.2124990000000000    0.9861950000000000    0.9993000000000000 F F F O
   0.4969130000000000    0.7976530000000002    0.9991769999999999 F F F O
   0.0034930000000000    0.3021760000000000    0.9982270000000000 F F F O
  -0.0045973617118723    0.0034281832310535    0.4647847492367932 T T T O
   0.9860581634413413    0.4915599557898918    0.4644210333149896 T T T O
   0.4873694128527822    0.9917872659083967    0.4632470684014214 T T T O
   0.4951336231816801    0.5027243544175682    0.4629912534383707 T T T O
   0.7375552513502207    0.2303875483543450    0.5193442800173084 T T T O
   0.2380961087166120    0.7309835024517909    0.5183691386379461 T T T O
   0.7399614633946334    0.7351480485239095    0.5189700573359545 T T T O
   0.2447217456448629    0.2340616891986876    0.5201550788943000 T T T O
   0.9887790160407921    0.5220210143208941    0.5200961311733528 T T T Sr
   0.4983322507353781    0.0097092836293713    0.4033182848628565 T T T Sr
   0.5079227379249086   -0.0015516301456973    0.3171292487425519 T T T Sr
   0.5005330354623160    0.4958379960027626    0.3162051215152344 T T T Sr
   0.4945522901008160   -0.0042892131033692    0.2281592468509062 T T T Sr
   0.9890689212844177    0.5026144198198192    0.2239428038075376 T T T Sr
   0.5036924540944685    0.4991842185560700    0.1345573579221089 T T T Sr
   0.0025580300000000    0.9991380000000000    0.0452371000000000 F F F Sr
   0.4905827907821513    1.0175906149069041    0.5197226006932012 T T T Sr
   0.9878477743068029    1.0180912895149588    0.5203059004253785 T T T Sr
  -0.0103741224426776    0.4944356105768605    0.4049692473654510 T T T Sr
   0.7364537759732798    0.7567607243931270    0.4632348170089719 T T T Sr
   0.7414363955088804    0.2611413408841974    0.4638886701433982 T T T Sr
   0.4876262293461176    0.5192685448328199    0.5194425618719348 T T T Sr
   1.2360274714376240    0.2572307521055371    0.4649355247489378 T T T Sr
   0.2391997356267369    0.7627418807466247    0.4627040298704367 T T T Sr
   0.9880836888765235    1.0090307182556932    0.4049680982165932 T T T Sr
   0.4928358405402182    0.4913048929342577    0.4026522479140979 T T T Sr
