Sr14 La10 Fe20 O74
1.0
   7.9023977777800001    0.0000000000000000    0.0000000000000000
   0.0000000000000000    7.9023977777800001    0.0000000000000000
   0.0000000000000000    0.0000000000000000   43.3643938769000030
La Fe O Sr
10 20 74 14
Selective dynamics
direct
   0.9930361964556355    0.9966830140592423    0.3162933555894048 T T T La
   0.9881074677360202    0.4992244786792004    0.3159444133653989 T T T La
   0.9984073169837433    0.0013075838977308    0.2277931662876913 T T T La
   0.4863353114443549    0.5005061101735001    0.2254093980727075 T T T La
   0.0074393630108679    0.0009468758945625    0.1364340427630367 T T T La
   0.5036925959415761    0.0011205710440426    0.1361262576583690 T T T La
   0.9969804639229428    0.5037028460688006    0.1348641864290570 T T T La
   0.0062887400000000    0.4975760000000001    0.0449424000000000 F F F La
   0.5049640000000000    0.9993850000000002    0.0448529000000000 F F F La
   0.5031679999999999    0.5002950000000000    0.0447939000000000 F F F La
   0.7457649879877173    0.2492971306926857    0.3619597181542288 T T T Fe
   0.2429924148896692    0.7487915183146276    0.3623922570353332 T T T Fe
   0.7412896618393747    0.7481179927895579    0.3624762638068733 T T T Fe
   0.2476700664955881    0.2485904772523574    0.3616973131761640 T T T Fe
   0.2460922420059590    0.7491871590970505    0.2710394907466064 T T T Fe
   0.7454397098427078    0.7494568477526667    0.2709334517662283 T T T Fe
   0.7460256058139367    0.2500301542210357    0.2709141168662628 T T T Fe
   0.2466596693305896    0.2498012389101994    0.2710030317954714 T T T Fe
   0.7481979667763838    0.7505599047422551    0.1809133704604921 T T T Fe
   0.2500870110536740    0.2510820611030064    0.1807047963012661 T T T Fe
   0.7482843965306736    0.2504848913699136    0.1808006435471333 T T T Fe
   0.2502326475249773    0.7498541318847952    0.1807146567993227 T T T Fe
   0.7512200000000000    0.7497890000000003    0.0900045000000000 F F F Fe
   0.2525560000000000    0.2485840000000000    0.0899467000000000 F F F Fe
   0.2525570000000000    0.7519880000000000    0.0898348000000000 F F F Fe
   0.7515110000000000    0.2507570000000000    0.0898128000000000 F F F Fe
   0.7551410000000000    0.2486030000000000    0.9998840000000000 F F F Fe
   0.7559090000000001    0.7513010000000000    0.9998100000000000 F F F Fe
   0.2485380000000000    0.2456220000000000    0.9997749999999999 F F F Fe
   0.2515020000000000    0.7484870000000000    0.9996820000000000 F F F Fe
   0.7627804670242241    0.2428467914567327    0.4063699576863690 T T T O
   0.2551762584224990    0.2629875819232298    0.4061780885525557 T T T O
   0.2407832245812099    0.7356593352968736    0.4077857096836418 T T T O
   0.7473557635912640    0.4995939756494051    0.3620695614572152 T T T O
   0.4974639406656787    0.2459414022443922    0.3606052848561964 T T T O
   0.2351722786907469    0.9982051270287725    0.3626017391353991 T T T O
   0.4923053614729780    0.7509463648183055    0.3594180806279511 T T T O
   0.9927978459852349    0.7464462158418851    0.3600778275511664 T T T O
   0.2389115404640478    0.4996816410052581    0.3568611531861932 T T T O
   0.9973474182357865    0.2506147651865240    0.3579688764278722 T T T O
   0.7511778588625627   -0.0018668484698258    0.3573064596161347 T T T O
   0.5603681880550040    0.2361105922445438    0.5152810781888937 T T T O
   0.2323849464173199    0.7710898132477396    0.3153797667859317 T T T O
   0.7606288125655223    0.7299652190511324    0.3153792706102625 T T T O
   0.0680319674650706    0.0542421626452728    0.4550944466262486 T T T O
   0.7515678632321438    0.2715328966268997    0.3155008958922705 T T T O
   0.2484038035775036    0.2284015140130588    0.3154612881721802 T T T O
   0.7192492554443581    0.0002403389528740    0.2750127957027492 T T T O
   0.2016436929752319   -0.0203712535968238    0.5180410061548082 T T T O
   0.2076815298351330    0.4993282535780493    0.2751735008590420 T T T O
  -0.0028367231977144    0.2081950317802345    0.2730731244140908 T T T O
  -0.0035212625144639    0.7913182278344317    0.2708384956113589 T T T O
   0.4964954287254827    0.7111298962407790    0.2691525934078707 T T T O
   0.2700130542189020   -0.0003291574519452    0.2664873869988409 T T T O
   0.4971313735748436    0.2879157693188439    0.2671313740336347 T T T O
   0.7819853488724909    0.4996126197455786    0.2680165198223549 T T T O
   0.2330266126795143    0.2738327808096054    0.2257597826726883 T T T O
   0.2449023123744517    0.7243102635906460    0.2257731956887406 T T T O
   0.7710952507412285    0.2252482095151654    0.2257376634617003 T T T O
   0.7593805527395721    0.7749571746447453    0.2257862792168756 T T T O
   0.7086594432978605    0.5003294699359611    0.1851078028159154 T T T O
   0.1992946787479278    0.0003268241907045    0.1842963187747066 T T T O
   0.4988886554541664    0.2100037977057094    0.1826127761904256 T T T O
   0.7350523898337386    0.7550337727647838    0.4077357511881909 T T T O
   0.4988846427721293    0.7927058781434967    0.1807451686885075 T T T O
   0.2873632938761327    0.5001505763686575    0.1773023909225122 T T T O
   0.9995255385431039    0.7119050044159952    0.1772219015734543 T T T O
   0.4322341246949067    0.5523356159080537    0.4776792394772751 T T T O
   0.7919558993096281    0.0003594161479042    0.1768866709483558 T T T O
   0.9994141971292805    0.2883199877655001    0.1751426105951498 T T T O
   0.7352340611508520    0.2580125388763249    0.1351924031525738 T T T O
   0.7471481430420213    0.7401933882645546    0.1352767039505470 T T T O
   0.2656098789629209    0.2196800153972836    0.1352205139264333 T T T O
   0.2544279498600961    0.7794180843742402    0.1352420843992555 T T T O
   0.0016510300000000    0.2052720000000000    0.0929924000000000 F F F O
   0.0017685700000000    0.7946140000000000    0.0917109000000000 F F F O
   0.2012500000000000    0.5014790000000002    0.0916148000000000 F F F O
   0.6998410000000000    0.0005042950000000    0.0913373000000000 F F F O
   0.8059610000000003    0.5002500000000000    0.0898055000000000 F F F O
   0.5018950000000002    0.7052690000000000    0.0890508000000000 F F F O
   0.3058880000000000    0.9991640000000003    0.0875469000000000 F F F O
   0.5019439999999999    0.2962430000000000    0.0871561000000000 F F F O
   0.7476850000000000    0.7474010000000000    0.0455491000000000 F F F O
   0.7586450000000002    0.2539360000000000    0.0450867000000000 F F F O
   0.2426100000000000    0.2623140000000000    0.0442249000000000 F F F O
   0.2559420000000000    0.7382330000000000    0.0436785000000000 F F F O
   0.7011960147385986    0.9879545817649739    0.5177584047019258 T T T O
   0.4986800000000002    0.2067080000000000    0.0007810810000000 F F F O
   0.0072915400000000    0.6963300000000000    0.0002777920000000 F F F O
   0.3038860000000000    0.5116130000000000    0.0000336940000000 F F F O
   0.7021790000000000    0.5024940000000000    0.0000071380000000 F F F O
   0.7871650000000002    0.9982330000000000    0.9995859999999999 F F F O
   0.2124990000000000    0.9861950000000000    0.9993000000000000 F F F O
   0.5636310871420513    0.0753803078509247    0.5260027136217835 T T T O
   0.4969130000000000    0.7976530000000002    0.9991769999999999 F F F O
   0.0034930000000000    0.3021760000000000    0.9982270000000000 F F F O
   0.9325906505303003   -0.0535777592375924    0.4643264396260377 T T T O
   0.0475350757116006    0.4587617066466985    0.4580226827333214 T T T O
   0.4312858842278903    0.9472678145570541    0.4646436572383225 T T T O
   0.5485358284806754    0.4611090465157126    0.4571237387405997 T T T O
   0.5638684564509254    1.0576193688764026    0.4550080892874659 T T T O
   0.0594122240748765    0.0622429971288518    0.5250543773299586 T T T O
   0.9298323519141041    0.5527346037594657    0.4778098412125943 T T T O
   0.0553157790582372    0.2244675888568311    0.5153021770382475 T T T O
   0.6827229651575071    0.7537995086924706    0.4663781027570832 T T T Sr
   0.4883256514111553   -0.0030941377444400    0.3164579393948373 T T T Sr
   0.4942442271210353    0.4971373957671023    0.3155862195745375 T T T Sr
   0.5050077457621270   -0.0003959126626208    0.2272507209389480 T T T Sr
   0.9945326736469600    0.5008884363082846    0.2245683616958764 T T T Sr
   0.5053145063345665    0.4992548963322123    0.1349868107656275 T T T Sr
   0.0025580300000000    0.9991380000000000    0.0452371000000000 F F F Sr
  -0.0141160816943857   -0.0030275720411003    0.4010613547763290 T T T Sr
  -0.0027505326383656    0.4943247333240248    0.4007141195017709 T T T Sr
   0.8066795082618914    1.2509800971803160    0.4684898185988691 T T T Sr
   0.3071291106804147    1.2522110545961340    0.4687328327102493 T T T Sr
   0.4907558384931581    0.4997073642949472    0.4002447230518104 T T T Sr
   0.1838489398967328    0.7504780115581533    0.4663119416566056 T T T Sr
   0.4910135270760789    0.9991528269216585    0.4005813082231754 T T T Sr
