Sr22 La10 Fe20 O90
1.0
   7.9023977777800001    0.0000000000000000    0.0000000000000000
   0.0000000000000000    7.9023977777800001    0.0000000000000000
   0.0000000000000000    0.0000000000000000   43.3643938769000030
La Fe O Sr
10 20 74 14
Selective dynamics
direct
   0.9955302582889748    0.9963719481912765    0.3153659543798422 T T T La
   0.9888565388082151    0.4988960082040719    0.3151142520124040 T T T La
   0.9969859767371380    0.0019706170486427    0.2272578414798379 T T T La
   0.4904411697002312    0.5003869458345478    0.2252055194918637 T T T La
   0.0034726045868831    0.0001400370955262    0.1361672212266476 T T T La
   0.5012492601115556    0.0007946336013923    0.1358408145881683 T T T La
   0.9974105521977893    0.5020034802914562    0.1348480097887341 T T T La
   0.0062887400000000    0.4975760000000001    0.0449424000000000 F F F La
   0.5049640000000000    0.9993850000000001    0.0448529000000000 F F F La
   0.5031679999999999    0.5002950000000000    0.0447939000000000 F F F La
   0.7458896220526398    0.2503654245264912    0.3615216908265061 T T T Fe
   0.2443970045172309    0.7494176309827340    0.3622986478001058 T T T Fe
   0.7433928418331263    0.7483518410971973    0.3621891326317296 T T T Fe
   0.2475261957859183    0.2492375069599017    0.3615779394453727 T T T Fe
   0.2471109699848462    0.7496790593366297    0.2707142566470799 T T T Fe
   0.7457312935877283    0.7491809892097162    0.2704197811490107 T T T Fe
   0.7452225248154757    0.2508882607639218    0.2704738915366138 T T T Fe
   0.2470645505660930    0.2501146274677529    0.2707777198024710 T T T Fe
   0.7479756790279889    0.7504918339684769    0.1805147300177767 T T T Fe
   0.2492569095232886    0.2504414578582850    0.1805073591515403 T T T Fe
   0.7478429364135135    0.2505415705963716    0.1804887440012340 T T T Fe
   0.2496419678748364    0.7500940483004380    0.1804756397442446 T T T Fe
   0.7512200000000000    0.7497890000000001    0.0900045000000000 F F F Fe
   0.2525560000000000    0.2485840000000000    0.0899467000000000 F F F Fe
   0.2525570000000000    0.7519880000000000    0.0898348000000000 F F F Fe
   0.7515110000000000    0.2507570000000000    0.0898128000000000 F F F Fe
   0.7551410000000000    0.2486030000000000    0.9998840000000000 F F F Fe
   0.7559090000000001    0.7513010000000000    0.9998100000000000 F F F Fe
   0.2485380000000000    0.2456220000000000    0.9997749999999999 F F F Fe
   0.2515020000000000    0.7484870000000000    0.9996820000000000 F F F Fe
   0.7594973250519238    0.2401760839609157    0.4070139333771240 T T T O
   0.2508609635434777    0.2616578508234143    0.4069506677081545 T T T O
   0.2435941324430462    0.7388025969139159    0.4087202951794133 T T T O
   0.7482350156731202    0.5000674843640961    0.3625741381445619 T T T O
   0.4976913712231053    0.2473029882171708    0.3607528418187422 T T T O
   0.2376338221084698    0.9988349769457077    0.3621646441242924 T T T O
   0.4942500974117348    0.7512310833259614    0.3596871264193151 T T T O
   0.9942117921326468    0.7473159624712589    0.3601950227614462 T T T O
   0.2400067169644294    0.5001771293036149    0.3575051706495634 T T T O
   0.9966869137187871    0.2511140351741407    0.3578987575841988 T T T O
   0.7521408198750100   -0.0010113289841176    0.3568182467476935 T T T O
   0.5819539535210680    0.2415018432794318    0.5106418412125974 T T T O
   0.2335864243708491    0.7670487834030788    0.3152857711427750 T T T O
   0.7620292164599201    0.7280257626264670    0.3149946377433661 T T T O
   0.0437325761444415    0.0474122712300637    0.4567897620526590 T T T O
   0.7500113984170046    0.2747817928692239    0.3150880927678582 T T T O
   0.2480577749797215    0.2326666148304470    0.3153926644037298 T T T O
   0.7231495165582728    0.0001524035049110    0.2741607503590638 T T T O
   0.2269839813737209   -0.0211940670239104    0.5100813172281552 T T T O
   0.2096160829750577    0.4993854554584856    0.2739527965297874 T T T O
  -0.0033615165817536    0.2113687444071147    0.2726544421238127 T T T O
  -0.0026685159338015    0.7895095817168349    0.2703731176107626 T T T O
   0.4968216436486792    0.7127939576575051    0.2687039943223640 T T T O
   0.2692853092503020    0.0005133082216715    0.2675536886022123 T T T O
   0.4966140545757003    0.2872383181382840    0.2668432686778910 T T T O
   0.7800070961367028    0.5002023902721149    0.2669598558013658 T T T O
   0.2341981871858438    0.2662432561934189    0.2255565047162540 T T T O
   0.2459414576535486    0.7324490944593369    0.2254060002966635 T T T O
   0.7663075494471521    0.2278781754899011    0.2252613312561803 T T T O
   0.7577514891117348    0.7727008006051722    0.2252066547442456 T T T O
   0.7105772799215092    0.5003382259591321    0.1837753380891456 T T T O
   0.2017119492262748    0.0001958469638161    0.1832796734833584 T T T O
   0.4983501982869291    0.2123442703849290    0.1817295491124286 T T T O
   0.7393547070105043    0.7594522269953353    0.4085424901373896 T T T O
   0.4986029390708220    0.7896136130037210    0.1798883764887468 T T T O
   0.2844978919111747    0.5001920130148708    0.1782840356979692 T T T O
   0.9993871708047887    0.7148302196256691    0.1771684463889242 T T T O
   0.4237546819427434    0.5464986774589944    0.4801584569670743 T T T O
   0.7890431804203325    0.0007544216103236    0.1770475262001959 T T T O
   0.9990754095234937    0.2861558323487675    0.1758562291354495 T T T O
   0.7392654015789927    0.2561721699318237    0.1349894426113125 T T T O
   0.7492160518361578    0.7438122045161916    0.1349798322652012 T T T O
   0.2627173177515582    0.2247645173598803    0.1350607635382937 T T T O
   0.2531426261607692    0.7745672969551401    0.1350328244654810 T T T O
   0.0016510300000000    0.2052720000000000    0.0929924000000000 F F F O
   0.0017685700000000    0.7946140000000000    0.0917109000000000 F F F O
   0.2012500000000000    0.5014790000000001    0.0916148000000000 F F F O
   0.6998410000000000    0.0005042950000000    0.0913373000000000 F F F O
   0.8059610000000001    0.5002500000000000    0.0898055000000000 F F F O
   0.5018950000000001    0.7052690000000000    0.0890508000000000 F F F O
   0.3058880000000000    0.9991640000000002    0.0875469000000000 F F F O
   0.5019439999999999    0.2962430000000000    0.0871561000000000 F F F O
   0.7476850000000000    0.7474010000000000    0.0455491000000000 F F F O
   0.7586450000000001    0.2539360000000000    0.0450867000000000 F F F O
   0.2426100000000000    0.2623140000000000    0.0442249000000000 F F F O
   0.2559420000000000    0.7382330000000000    0.0436785000000000 F F F O
   0.7220537204332880    0.9899159366840211    0.5096776886941944 T T T O
   0.4986800000000001    0.2067080000000000    0.0007810810000000 F F F O
   0.0072915400000000    0.6963300000000000    0.0002777920000000 F F F O
   0.3038860000000000    0.5116130000000000    0.0000336940000000 F F F O
   0.7021790000000000    0.5024940000000000    0.0000071380000000 F F F O
   0.7871650000000001    0.9982330000000000    0.9995859999999999 F F F O
   0.2124990000000000    0.9861950000000000    0.9993000000000000 F F F O
   0.5883306131814585    0.0779862030514444    0.5214327536585056 T T T O
   0.4969130000000000    0.7976530000000001    0.9991769999999999 F F F O
   0.0034930000000000    0.3021760000000000    0.9982270000000000 F F F O
   0.9206634364591446   -0.0488210101070507    0.4756165126651091 T T T O
   0.0388137362299176    0.4593156652626835    0.4591918994824090 T T T O
   0.4201431588580111    0.9510357870899590    0.4757307445985881 T T T O
   0.5409195844857300    0.4605939967378904    0.4581455661956680 T T T O
   0.5393562846843589    1.0494838392470078    0.4565180843865220 T T T O
   0.0837115574733122    0.0575347208952234    0.5203221985911565 T T T O
   0.9205399685121545    0.5487907150923040    0.4803370139332499 T T T O
   0.0697818896000312    0.2198609202862554    0.5094534662817620 T T T O
   0.6783640860105584    0.7541688533005069    0.4652453165945905 T T T Sr
   0.4898201541769927   -0.0018328130102489    0.3158305087454659 T T T Sr
   0.4930205848082903    0.4980748938443499    0.3153233239574084 T T T Sr
   0.5008125527094505   -0.0001684702998291    0.2266372811709123 T T T Sr
   0.9976706306981609    0.5010592907241886    0.2242463392529001 T T T Sr
   0.5021302719286657    0.4989843647275337    0.1350787957061368 T T T Sr
   0.0025580300000000    0.9991380000000000    0.0452371000000000 F F F Sr
  -0.0110833670103207   -0.0005836885653218    0.3997323978294158 T T T Sr
  -0.0014456244118584    0.4958004274877238    0.3998448863856338 T T T Sr
   0.7889878105305054    1.2499223985336230    0.4639284741850218 T T T Sr
   0.2891072335066823    1.2522947500604358    0.4638431669819196 T T T Sr
   0.4914403903651519    0.5004426566750275    0.3993976979344362 T T T Sr
   0.1796549331422395    0.7521181737173083    0.4653429989941303 T T T Sr
   0.4961768312311566    1.0003392265682098    0.3992427164293766 T T T Sr
