Sr18 La10 Fe20 O65
1.0
   7.9023977777800001    0.0000000000000000    0.0000000000000000
   0.0000000000000000    7.9023977777800001    0.0000000000000000
   0.0000000000000000    0.0000000000000000   43.3643938769000030
La Fe O Sr
10 20 65 18
Selective dynamics
direct
   0.7375550996544430    0.7618053658651630    0.3631455303551333 T T T La
   0.7387608775510651    0.2374282431810179    0.3623614349402361 T T T La
   0.9826053217667319    0.0019237945443942    0.2186746549793199 T T T La
   0.4787080984996677    0.4975742201275548    0.2176140876848613 T T T La
   0.0053017375623654   -0.0009882331324962    0.1338682497220759 T T T La
   0.4993465923535126   -0.0004975592906936    0.1337782484056493 T T T La
   0.9938362468035777    0.5021330415059612    0.1336716637049452 T T T La
   0.0062887400000000    0.4975760000000001    0.0449424000000000 F F F La
   0.5049640000000000    0.9993850000000006    0.0448529000000000 F F F La
   0.5031679999999999    0.5002950000000000    0.0447939000000000 F F F La
   0.7440346539576245    0.7510912783001985    0.4649739782183556 T T T Fe
   0.2439692806814324    0.2522390884351259    0.4603764405743345 T T T Fe
   0.7446488382645480    0.2508818831066985    0.4648730454594913 T T T Fe
   0.2443106734175438    0.7497365927928816    0.4604182029481844 T T T Fe
   0.4932061195929471   -0.0006494343634336    0.3194983520200057 F F F Fe
  -0.0069407047793914    0.5002362130384906    0.3198202073293814 F F F Fe
   0.4937268009992414    0.5006831997387574    0.3194706967054944 F F F Fe
  -0.0064901186402752    0.0000530587941241    0.3198964045989448 F F F Fe
   0.7468319798658695    0.7495882763942424    0.1793398674128573 T T T Fe
   0.2475377696865116    0.2516104704708351    0.1792520931829693 T T T Fe
   0.7461328474115833    0.2515708632576982    0.1790348747721767 T T T Fe
   0.2477869146375294    0.7491810452939424    0.1793664975547258 T T T Fe
   0.7512200000000000    0.7497890000000007    0.0900045000000000 F F F Fe
   0.2525560000000000    0.2485840000000000    0.0899467000000000 F F F Fe
   0.2525570000000000    0.7519880000000000    0.0898348000000000 F F F Fe
   0.7515110000000000    0.2507570000000000    0.0898128000000000 F F F Fe
   0.7551410000000000    0.2486030000000000    0.9998840000000000 F F F Fe
   0.7559090000000001    0.7513010000000000    0.9998100000000000 F F F Fe
   0.2485380000000000    0.2456220000000000    0.9997749999999999 F F F Fe
   0.2515020000000000    0.7484870000000000    0.9996820000000000 F F F Fe
   0.7442727113379906    0.2511114021981845    0.5121615901885054 T T T O
   0.7451498769048582    0.7509970675078438    0.5122289011213632 T T T O
   0.7445947445715556    0.5009525867216155    0.4636874597247547 T T T O
   0.2447684316611710    0.0011801453940104    0.4745483348862467 T T T O
   0.4902910734623966    0.2515610548182012    0.4665157582805532 T T T O
   0.4898689623903292    0.7506215426568534    0.4671657001032464 T T T O
   0.2443181736752290    0.5009124955142947    0.4746611985791896 T T T O
   0.9984233693828551    0.7510800434918202    0.4665438707976091 T T T O
   0.7442210054601077    0.0010265604610304    0.4640182233051407 T T T O
   0.9985590749873112    0.2510405320648565    0.4667953793721680 T T T O
  -0.0085084581987660    0.2494512355381352    0.3197145636776128 F F F O
  -0.0060068077819185    0.7512750676828847    0.3100115868476128 F F F O
   0.2431148409509881    0.4999538356701590    0.3199967545049779 F F F O
   0.4910734262941471    0.7489420389141044    0.3193035756520252 F F F O
   0.4941526012523025    0.2516056213375037    0.3199519529251890 F F F O
   0.2449613782258766    0.0009275030575548    0.3195016335694582 F F F O
   0.7411937970984883   -0.0006322670782960    0.3101724430554189 F F F O
   0.7477254284267660    0.2507371345570872    0.4153895843652544 T T T O
   0.7411205935493763    0.7507356843695505    0.4161132973895400 T T T O
   0.2425027471204979    0.2520823232125209    0.4155628034576154 T T T O
   0.2461419531311385    0.7496944518631106    0.4155903341486216 T T T O
   0.2506079093099911    0.2851319080228625    0.2247439733340127 T T T O
   0.2540499410315037    0.7163358569733570    0.2246553717544481 T T T O
   0.7608459085680623    0.2232106094413628    0.2235097550262811 T T T O
   0.7608116895244074    0.7799101346963699    0.2239209184664603 T T T O
   0.7252477370356937    0.5008401893508209    0.1837390604048696 T T T O
   0.2209213224188147    0.0009062864498719    0.1841820147631068 T T T O
   0.4975101481775336    0.2335388134484810    0.1800868763853728 T T T O
   0.4981377644912324    0.7691274767133565    0.1788309489298983 T T T O
   0.2656205252008817    0.5004320009983131    0.1733985921574309 T T T O
   0.9988905986531046    0.7307959424388333    0.1769947970410810 T T T O
   0.7695106425921642    0.0007075592489079    0.1737796894445557 T T T O
   0.9983610055093551    0.2703662323422783    0.1757415132721526 T T T O
   0.7402566703186942    0.2652671125180781    0.1342257719557331 T T T O
   0.7517990649122129    0.7350955473355157    0.1343606358521772 T T T O
   0.2627328580298620    0.2139119898733174    0.1343743033555187 T T T O
   0.2533601770228228    0.7868262337240426    0.1344091135495515 T T T O
   0.0016510300000000    0.2052720000000000    0.0929924000000000 F F F O
   0.0017685700000000    0.7946140000000000    0.0917109000000000 F F F O
   0.2012500000000000    0.5014790000000006    0.0916148000000000 F F F O
   0.6998410000000000    0.0005042950000000    0.0913373000000000 F F F O
   0.8059610000000007    0.5002500000000000    0.0898055000000000 F F F O
   0.5018950000000003    0.7052690000000000    0.0890508000000000 F F F O
   0.3058880000000000    0.9991640000000007    0.0875469000000000 F F F O
   0.5019439999999999    0.2962430000000000    0.0871561000000000 F F F O
   0.7476850000000000    0.7474010000000000    0.0455491000000000 F F F O
   0.7586450000000007    0.2539360000000000    0.0450867000000000 F F F O
   0.2426100000000000    0.2623140000000000    0.0442249000000000 F F F O
   0.2559420000000000    0.7382330000000000    0.0436785000000000 F F F O
   0.4986800000000002    0.2067080000000000    0.0007810810000000 F F F O
   0.0072915400000000    0.6963300000000000    0.0002777920000000 F F F O
   0.3038860000000000    0.5116130000000000    0.0000336940000000 F F F O
   0.7021790000000000    0.5024940000000000    0.0000071380000000 F F F O
   0.7871650000000006    0.9982330000000000    0.9995859999999999 F F F O
   0.2124990000000000    0.9861950000000000    0.9993000000000000 F F F O
   0.4969130000000000    0.7976530000000004    0.9991769999999999 F F F O
   0.0034930000000000    0.3021760000000000    0.9982270000000000 F F F O
  -0.0395981901598405   -0.0162215973064862    0.3666087521217473 T T T O
   0.9426860947144359    0.5185530501676906    0.3644442062275315 T T T O
   0.5327720712454959    1.0039488829233620    0.3678169047203035 T T T O
   0.5460497213538609    0.4970870026909414    0.3653027212771133 T T T O
   0.0175206202231664    0.0182987270607605    0.2698097225242305 T T T O
   0.9458383681614010    0.4850551244075992    0.2759884542930949 T T T O
   0.4734103245606211    1.0020023481129223    0.2727967655958983 T T T O
   0.5258257180178385    0.4991370649372041    0.2734836426693480 T T T O
   0.7366107183021663    0.7515195485435163    0.2771747920436032 T T T Sr
   0.7404941479206532    0.2435742622805471    0.2772737717331462 T T T Sr
   1.2420739676466361    0.2438518203132417    0.2793252070025989 T T T Sr
   0.2504764511630094    0.7629276078893875    0.2786133055755967 T T T Sr
   0.4976367244178722    0.0002968852586067    0.4241937187251102 T T T Sr
   0.4953688295236240    0.0000202043475387    0.2184882094547697 T T T Sr
   0.9941349592578340    0.4989483148468917    0.2193761394847757 T T T Sr
   0.5030596817371873    0.4987726437761684    0.1331720222410480 T T T Sr
   0.0025580300000000    0.9991380000000000    0.0452371000000000 F F F Sr
  -0.0160164190636100    0.5011650736046747    0.4226095179717982 T T T Sr
   1.2478614117801670    0.2476369756685342    0.3588925459010214 T T T Sr
   0.2375416072957588    0.7528984976385859    0.3586366083067086 T T T Sr
   0.9888512461710550    1.0005508082723995    0.4236602852817221 T T T Sr
   0.5025567276012830    0.5011351272473991    0.4229861168148373 T T T Sr
  -0.0376823254324116    0.5010993583402068    0.5043375970667910 T T T Sr
   0.5270038474094118    0.0012489898695137    0.5047593787923305 T T T Sr
   0.9623800129189175    1.0011035619921540    0.5045730892704348 T T T Sr
   0.5269661686320034    0.5009157406944762    0.5044719409808534 T T T Sr
