Sr20 La8 Fe20 O68
1.0
   7.9023977777800001    0.0000000000000000    0.0000000000000000
   0.0000000000000000    7.9023977777800001    0.0000000000000000
   0.0000000000000000    0.0000000000000000   43.3643938769000030
La Fe O Sr
10 20 65 18
Selective dynamics
direct
   0.7402493634745803    0.7481105717049890    0.3618145361919510 T T T La
   0.7405493852738027    0.2520100054868423    0.3615365032314503 T T T La
   0.9823792690919662    0.0017923353842153    0.2203670455109806 T T T La
   0.4770856308656026    0.4972047814311442    0.2185795971691316 T T T La
   0.0049748209020290   -0.0004667013672827    0.1346035177395304 T T T La
   0.5007114135131737    0.0006217523881327    0.1344429199088145 T T T La
   0.9939910510537511    0.5034452449634265    0.1341424339959711 T T T La
   0.0062887400000000    0.4975760000000001    0.0449424000000000 F F F La
   0.5049640000000000    0.9993850000000005    0.0448529000000000 F F F La
   0.5031679999999999    0.5002950000000000    0.0447939000000000 F F F La
   0.7443414599892567    0.7510346969837367    0.4655346752166333 T T T Fe
   0.2443583642491817    0.2509244453104699    0.4652531370321094 T T T Fe
   0.7447696991506234    0.2512322861501664    0.4653375731450178 T T T Fe
   0.2445587519513899    0.7513622159057403    0.4654619125394346 T T T Fe
   0.4932061195929471   -0.0006494343634336    0.3194983520200057 F F F Fe
  -0.0069407047793914    0.5002362130384906    0.3198202073293814 F F F Fe
   0.4937268009992414    0.5006831997387574    0.3194706967054944 F F F Fe
  -0.0064901186402752    0.0000530587941241    0.3198964045989448 F F F Fe
   0.7465316693079185    0.7499022288587845    0.1797874874494327 T T T Fe
   0.2474001841244474    0.2506977524483912    0.1793578660502126 T T T Fe
   0.7461998874210019    0.2516102950491914    0.1795000457709344 T T T Fe
   0.2478414313442123    0.7505000439336906    0.1794716121827608 T T T Fe
   0.7512200000000000    0.7497890000000006    0.0900045000000000 F F F Fe
   0.2525560000000000    0.2485840000000000    0.0899467000000000 F F F Fe
   0.2525570000000000    0.7519880000000000    0.0898348000000000 F F F Fe
   0.7515110000000000    0.2507570000000000    0.0898128000000000 F F F Fe
   0.7551410000000000    0.2486030000000000    0.9998840000000000 F F F Fe
   0.7559090000000001    0.7513010000000000    0.9998100000000000 F F F Fe
   0.2485380000000000    0.2456220000000000    0.9997749999999999 F F F Fe
   0.2515020000000000    0.7484870000000000    0.9996820000000000 F F F Fe
   0.7447192005830153    0.2509374399412911    0.5094070020025286 T T T O
   0.7446052357376234    0.7516895191023034    0.5094927448644286 T T T O
   0.7452045780925798    0.5011827264275434    0.4659462788424124 T T T O
   0.2449492182237695    0.0012647148100278    0.4657710983246461 T T T O
   0.4945499743820217    0.2514453951794418    0.4656532408300348 T T T O
   0.4939492984659881    0.7508153814586006    0.4659686862717237 T T T O
   0.2439370222718880    0.5010509775412378    0.4656084095860784 T T T O
   0.9949459808663527    0.7517105373647266    0.4656765064056161 T T T O
   0.7441315626430722    0.0011061945350718    0.4656470391455247 T T T O
   0.9945931024651053    0.2505506471413866    0.4656747757183793 T T T O
  -0.0085084581987660    0.2494512355381352    0.3197145636776128 F F F O
  -0.0060068077819185    0.7512750676828847    0.3100115868476128 F F F O
   0.2431148409509881    0.4999538356701590    0.3199967545049779 F F F O
   0.4910734262941471    0.7489420389141044    0.3193035756520252 F F F O
   0.4941526012523025    0.2516056213375037    0.3199519529251890 F F F O
   0.2449613782258766    0.0009275030575548    0.3195016335694582 F F F O
   0.7411937970984883   -0.0006322670782960    0.3101724430554189 F F F O
   0.7454134580787283    0.2520495816231598    0.4203804813145777 T T T O
   0.7430299379625941    0.7499466548539329    0.4207410865245297 T T T O
   0.2436540810024251    0.2499542366722249    0.4199316104391955 T T T O
   0.2454719383960569    0.7522693907715979    0.4202628924616355 T T T O
   0.2492772150988072    0.2790208711948140    0.2241905568377104 T T T O
   0.2551482950606578    0.7227099401308587    0.2242070152469989 T T T O
   0.7624577550070142    0.2271231116292956    0.2242592590190793 T T T O
   0.7591137007142369    0.7766660059414133    0.2244852661221436 T T T O
   0.7249767474124019    0.5009436367038592    0.1828277485712887 T T T O
   0.2180609436027853    0.0011891396169696    0.1835144188353226 T T T O
   0.4975811071353125    0.2299361624306996    0.1800062538864377 T T T O
   0.4980505641777309    0.7730446897156613    0.1782376211784035 T T T O
   0.2640959127454324    0.5005504884262454    0.1733577335524422 T T T O
   0.9987107461934154    0.7309268055705468    0.1767111153986809 T T T O
   0.7702647373909917    0.0009768022349460    0.1741225733529500 T T T O
   0.9982040616436522    0.2709907394651195    0.1749563757403396 T T T O
   0.7385433785835116    0.2627365118580623    0.1341590837055378 T T T O
   0.7523246981601730    0.7370519242470704    0.1342796510252083 T T T O
   0.2638408408408842    0.2154186819296895    0.1342955986176416 T T T O
   0.2523730847263507    0.7851641879531212    0.1343127230473402 T T T O
   0.0016510300000000    0.2052720000000000    0.0929924000000000 F F F O
   0.0017685700000000    0.7946140000000000    0.0917109000000000 F F F O
   0.2012500000000000    0.5014790000000006    0.0916148000000000 F F F O
   0.6998410000000000    0.0005042950000000    0.0913373000000000 F F F O
   0.8059610000000006    0.5002500000000000    0.0898055000000000 F F F O
   0.5018950000000003    0.7052690000000000    0.0890508000000000 F F F O
   0.3058880000000000    0.9991640000000006    0.0875469000000000 F F F O
   0.5019439999999999    0.2962430000000000    0.0871561000000000 F F F O
   0.7476850000000000    0.7474010000000000    0.0455491000000000 F F F O
   0.7586450000000006    0.2539360000000000    0.0450867000000000 F F F O
   0.2426100000000000    0.2623140000000000    0.0442249000000000 F F F O
   0.2559420000000000    0.7382330000000000    0.0436785000000000 F F F O
   0.4986800000000002    0.2067080000000000    0.0007810810000000 F F F O
   0.0072915400000000    0.6963300000000000    0.0002777920000000 F F F O
   0.3038860000000000    0.5116130000000000    0.0000336940000000 F F F O
   0.7021790000000000    0.5024940000000000    0.0000071380000000 F F F O
   0.7871650000000006    0.9982330000000000    0.9995859999999999 F F F O
   0.2124990000000000    0.9861950000000000    0.9993000000000000 F F F O
   0.4969130000000000    0.7976530000000004    0.9991769999999999 F F F O
   0.0034930000000000    0.3021760000000000    0.9982270000000000 F F F O
  -0.0204891169351427   -0.0149522786743927    0.3652156468525322 T T T O
   0.9934596976155785    0.5147354283019466    0.3658687201951271 T T T O
   0.5077084667379120    1.0000965186199362    0.3658236036261202 T T T O
   0.4938289960380372    0.5005345272312046    0.3668476894959807 T T T O
   0.0187463059468065    0.0168670720672776    0.2702113160465940 T T T O
   0.9903528906038140    0.4856851907100491    0.2739500121858433 T T T O
   0.4759942691686082    1.0012919688837543    0.2737596849035681 T T T O
   0.4985789645480168    0.4983948181446753    0.2710633574617142 T T T O
   0.7348224521027079    0.7402589273134533    0.2793710904716645 T T T Sr
   0.7443040811229571    0.2576752924546959    0.2799693920395767 T T T Sr
   1.2424630245299031    0.2505183504289505    0.2806690486513710 T T T Sr
   0.2494398186551578    0.7529288628829413    0.2798540773034103 T T T Sr
   0.4952365107861409    0.0006623598920741    0.4240537509434438 T T T Sr
   0.4950111727585343   -0.0004421169660852    0.2196981429934518 T T T Sr
   0.9960575693199496    0.4987919696182054    0.2192852422972573 T T T Sr
   0.5036322427502163    0.4990567737068571    0.1336121483492439 T T T Sr
   0.0025580300000000    0.9991380000000000    0.0452371000000000 F F F Sr
  -0.0055350942642238    0.5024004616338791    0.4240386545008962 T T T Sr
   1.2479901925853409    0.2539164311470034    0.3613356249957928 T T T Sr
   0.2448966567840002    0.7481246274044008    0.3614961002809273 T T T Sr
   0.9932918203035109    0.9994575180180181    0.4237969399361196 T T T Sr
   0.4941454285414632    0.5013075051231289    0.4243011518307553 T T T Sr
  -0.0046252772148166    0.5008244193161918    0.5053698379906454 T T T Sr
   0.4941046385011943    0.0014171825514836    0.5053756106974404 T T T Sr
   0.9950368616762845    1.0014449009481889    0.5053186771216016 T T T Sr
   0.4939925666268553    0.5008047877006742    0.5054161208798306 T T T Sr
