Sr6 La26 Fe20 O76
1.0
   7.9023977777800001    0.0000000000000000    0.0000000000000000
   0.0000000000000000    7.9023977777800001    0.0000000000000000
   0.0000000000000000    0.0000000000000000   43.3643938769000030
La Fe O Sr
26 20 75 6
Selective dynamics
direct
   0.2710539554337094    0.7404923741863134    0.6064714275560618 T T T La
   1.0184556053200815    0.6080032709737230    0.5380128375817681 T T T La
   0.7772502087189137    0.0478322112915794    0.5473920545805883 T T T La
   0.7635606856029323    0.8017546970332823    0.4705029553144327 T T T La
   0.0178240807710010    0.2364215274208718    0.4776244601244484 T T T La
   1.0229233250855758    0.3146792668343089    0.5983861874469099 T T T La
   0.5168805858058159    0.6123763460168468    0.5385332998250161 T T T La
   0.7702456978155783    0.7354015413886311    0.6070772890447245 T T T La
   0.5323006525344405    0.2380434534176354    0.4812424738824001 T T T La
   0.5225743489592031    0.3131541676065053    0.5977721470939946 T T T La
   0.2710678487884220    0.7879473240239895    0.4675467735249189 T T T La
   0.2686306375128282    1.0512579206735100    0.5456689963305296 T T T La
  -0.0102220086069554    0.9954278339812360    0.3118160140350696 T T T La
   0.9820576977101745    0.4958166471659250    0.3106437611388659 T T T La
   0.9906665903253743   -0.0027437079979323    0.2244362711126660 T T T La
   0.4778061980047200    0.4914335544735891    0.2223107359765751 T T T La
   0.0078166603388804    0.0011657957132337    0.1352208688726315 T T T La
   0.5033054637867623    0.0002017800935691    0.1346732851276102 T T T La
   0.9949597106344021    0.5082585569159309    0.1339113895532955 T T T La
   0.0062887400000000    0.4975760000000001    0.0449424000000000 F F F La
   0.5049640000000000    0.9993850000000002    0.0448529000000000 F F F La
   0.5031679999999999    0.5002950000000000    0.0447939000000000 F F F La
   1.0012664576348724    0.5410288904871319    0.4145296371636569 T T T La
   0.5342931451266560    0.0154134150364603    0.4036800627377524 T T T La
   0.5394329404834781    0.5209625450194993    0.4121542731537607 T T T La
   0.9847916351089161    1.0225669900384751    0.4033968438533662 T T T La
   0.7272862871991046    0.2682460834410755    0.3625443021945577 T T T Fe
   0.2606870493006856    0.7642696355353682    0.3664358709443068 T T T Fe
   0.7612012520110510    0.7418707125479888    0.3645858895142743 T T T Fe
   0.2422241394867152    0.2553234981808968    0.3698528874524026 T T T Fe
   0.2478769300379585    0.7469674399274590    0.2717291210833767 T T T Fe
   0.7431238861832176    0.7507174566795491    0.2710078701888691 T T T Fe
   0.7410387306874774    0.2494654341940578    0.2707692703690537 T T T Fe
   0.2411919575455786    0.2532759945900007    0.2703384717451575 T T T Fe
   0.7462346501709345    0.7520023370998659    0.1807153352275618 T T T Fe
   0.2473555060519430    0.2507046501203924    0.1800316742658452 T T T Fe
   0.7467962118896972    0.2500192073133714    0.1804956455487571 T T T Fe
   0.2498698512044811    0.7504449064501494    0.1804757447380625 T T T Fe
   0.7512200000000000    0.7497890000000003    0.0900045000000000 F F F Fe
   0.2525560000000000    0.2485840000000000    0.0899467000000000 F F F Fe
   0.2525570000000000    0.7519880000000000    0.0898348000000000 F F F Fe
   0.7515110000000000    0.2507570000000000    0.0898128000000000 F F F Fe
   0.7551410000000000    0.2486030000000000    0.9998840000000000 F F F Fe
   0.7559090000000001    0.7513010000000000    0.9998089999999997 F F F Fe
   0.2485380000000000    0.2456220000000000    0.9997749999999999 F F F Fe
   0.2515020000000000    0.7484870000000000    0.9996820000000000 F F F Fe
   0.2746871305505115    0.6673814001198551    0.4142127605239269 T T T O
   1.0218807243574450    0.9376315779210218    0.4530451429542676 T T T O
   0.7967107965918478    0.4928614512257708    0.3746414915395110 T T T O
   1.2639883556823004    0.0001028573848203    0.3803763439159884 T T T O
   0.5082518020173715    0.7298817537869261    0.3680062443217286 T T T O
   0.1347088087564499    0.2828013017491540    0.4123577260519242 T T T O
   0.2396645277983124    0.7660695913885719    0.3227937115205443 T T T O
   0.4838748813029513    0.3021138548722012    0.3764778733791259 T T T O
   0.7695268896028892    0.7224282031351750    0.3208113593318810 T T T O
   0.7437662426680288    0.2863120388815895    0.3190392100440145 T T T O
   0.2026388233444449    0.2436878393019700    0.3271432385978290 T T T O
   0.7338338790633228    0.0002716571586516    0.2804451737663154 T T T O
   0.2258339238709268    0.4984892836759184    0.2796914408758275 T T T O
  -0.0057785686779670    0.2275461845672403    0.2771275473470497 T T T O
  -0.0020904403064861    0.7722584530746963    0.2751654178414701 T T T O
   0.4967454600477252    0.7331122294774444    0.2740726594941174 T T T O
   0.2539507462729981    0.0026245371494800    0.2726967844509143 T T T O
   0.4907754233480134    0.2705621587486337    0.2715552142408503 T T T O
   0.7722568678520741    0.5010134500087431    0.2691698651580811 T T T O
   0.2235065021757973    0.2776942219882029    0.2267343508874502 T T T O
   0.2469392302075477    0.7226659793001612    0.2272701357054996 T T T O
   0.7763539738275186    0.2180309527011909    0.2268506033090075 T T T O
   0.7623284425763120    0.7869638204537317    0.2270114196475764 T T T O
   0.7091213470860317    0.5018906395521509    0.1871839009219237 T T T O
   0.2013374293856355    0.0013302721826477    0.1857877535747886 T T T O
   0.4973650455921921    0.2188901692864543    0.1864866443580080 T T T O
   0.4988142266826322    0.7938598440374651    0.1816652283874763 T T T O
   0.2899872357846199    0.5009073448781155    0.1777125746051227 T T T O
   0.9995993368664282    0.7139271532393165    0.1783575099136919 T T T O
   0.7973925216302921    0.0014826354432463    0.1772443966365556 T T T O
   0.9984653773110221    0.2918671055331014    0.1746811706669947 T T T O
   0.7263287935802366    0.2577435397123053    0.1356364061623186 T T T O
   0.7708574204074526    0.5192629175486979    0.5728726846793724 T T T O
   0.7474731593577998    0.7376444302774602    0.1355833079991187 T T T O
   0.2715286152282683    0.2153558351937721    0.1355235151246049 T T T O
   0.2534030528383763    0.7822148149687219    0.1354284695993440 T T T O
   0.0016510300000000    0.2052720000000000    0.0929924000000000 F F F O
   0.0139207245930626    0.7580925141222241    0.3729435109598209 T T T O
   0.0017685700000000    0.7946140000000000    0.0917109000000000 F F F O
   0.2012500000000000    0.5014790000000002    0.0916148000000000 F F F O
   0.6998410000000000    0.0005042950000000    0.0913373000000000 F F F O
   0.8059610000000003    0.5002500000000000    0.0898055000000000 F F F O
   0.5018950000000002    0.7052690000000000    0.0890508000000000 F F F O
   0.3058880000000000    0.9991640000000003    0.0875469000000000 F F F O
   0.5019439999999999    0.2962430000000000    0.0871561000000000 F F F O
   0.7476850000000000    0.7474010000000000    0.0455491000000000 F F F O
   0.7586450000000002    0.2539360000000000    0.0450867000000000 F F F O
   0.2426100000000000    0.2623140000000000    0.0442249000000000 F F F O
   0.2559420000000000    0.7382330000000000    0.0436785000000000 F F F O
   0.4986800000000002    0.2067080000000000    0.0007810810000000 F F F O
   0.0072915400000000    0.6963300000000000    0.0002777920000000 F F F O
   0.3038860000000000    0.5116130000000000    0.0000336940000000 F F F O
   0.7021790000000000    0.5024940000000000    0.0000071380000000 F F F O
   0.7316653019750388    0.2379714588208517    0.4269147677969589 T T T O
   0.7871650000000002    0.9982330000000000    0.9995859999999999 F F F O
   0.2124990000000000    0.9861950000000000    0.9993000000000000 F F F O
   0.4969130000000000    0.7976530000000002    0.9991769999999999 F F F O
   0.0034930000000000    0.3021760000000000    0.9982270000000000 F F F O
   0.2674452181991198    0.1258592169279059    0.4924042054083624 T T T O
   0.0228146347653932   -0.1459411875472568    0.5694118155757070 T T T O
   0.0024944139259918    0.5495092342077900    0.4717427906598504 T T T O
   0.0200371142977386    0.5937828770629950    0.6212406023444409 T T T O
   0.7780373820764436    0.1009200945138583    0.4941041654276114 T T T O
   0.5137950932263968   -0.1479763175509523    0.5700651212327443 T T T O
   1.0198621444250768    0.2464863181567000    0.5419414086102228 T T T O
  -0.2317681026643562   -0.2419362627518600    0.5224231888609483 T T T O
   0.5242484218873886    0.2464224153631971    0.5402097904022864 T T T O
   0.2681376625599393    0.7575074934192862    0.5198144732176760 T T T O
   0.7465910451092886    0.7629300383041582    0.4146506487742334 T T T O
   0.2722540783022123    0.1489055983209636    0.5985966344182326 T T T O
   0.5251603374201341    0.5493308833056203    0.4711848214506153 T T T O
   0.5206449774044927    0.5905798141404940    0.6209771499522831 T T T O
   0.5084058528506198   -0.0486077229552195    0.4552926285631457 T T T O
   0.7716047133392726    0.1477597197272077    0.5998003860860686 T T T O
   0.2692893049100604    0.5216452003810904    0.5723568628123562 T T T O
   0.4816803331970657    1.0032031384885782    0.3127120261100296 T T T Sr
   0.4965011244370948    0.5049938429669927    0.3132153423692856 T T T Sr
   0.4930802235344302   -0.0062699447575742    0.2263789089519603 T T T Sr
   0.9851560078061373    0.5006169121891622    0.2223422790067974 T T T Sr
   0.5038101968284902    0.4993041770917130    0.1338636553633865 T T T Sr
   0.0025580300000000    0.9991380000000000    0.0452371000000000 F F F Sr
